* #variable= 344 #constraint= 6233 #equal= 0 intsize= 32
* N=344 k=19 ell=2; x_i=1 means f(i)=+1
+1 x1 +1 x2 +1 x3 +1 x4 +1 x5 +1 x6 +1 x7 +1 x8 +1 x9 +1 x10 +1 x11 +1 x12 +1 x13 +1 x14 +1 x15 +1 x16 +1 x17 +1 x18 +1 x19 >= 9;
-1 x1 -1 x2 -1 x3 -1 x4 -1 x5 -1 x6 -1 x7 -1 x8 -1 x9 -1 x10 -1 x11 -1 x12 -1 x13 -1 x14 -1 x15 -1 x16 -1 x17 -1 x18 -1 x19 >= -10;
+1 x2 +1 x3 +1 x4 +1 x5 +1 x6 +1 x7 +1 x8 +1 x9 +1 x10 +1 x11 +1 x12 +1 x13 +1 x14 +1 x15 +1 x16 +1 x17 +1 x18 +1 x19 +1 x20 >= 9;
-1 x2 -1 x3 -1 x4 -1 x5 -1 x6 -1 x7 -1 x8 -1 x9 -1 x10 -1 x11 -1 x12 -1 x13 -1 x14 -1 x15 -1 x16 -1 x17 -1 x18 -1 x19 -1 x20 >= -10;
+1 x3 +1 x4 +1 x5 +1 x6 +1 x7 +1 x8 +1 x9 +1 x10 +1 x11 +1 x12 +1 x13 +1 x14 +1 x15 +1 x16 +1 x17 +1 x18 +1 x19 +1 x20 +1 x21 >= 9;
-1 x3 -1 x4 -1 x5 -1 x6 -1 x7 -1 x8 -1 x9 -1 x10 -1 x11 -1 x12 -1 x13 -1 x14 -1 x15 -1 x16 -1 x17 -1 x18 -1 x19 -1 x20 -1 x21 >= -10;
+1 x4 +1 x5 +1 x6 +1 x7 +1 x8 +1 x9 +1 x10 +1 x11 +1 x12 +1 x13 +1 x14 +1 x15 +1 x16 +1 x17 +1 x18 +1 x19 +1 x20 +1 x21 +1 x22 >= 9;
-1 x4 -1 x5 -1 x6 -1 x7 -1 x8 -1 x9 -1 x10 -1 x11 -1 x12 -1 x13 -1 x14 -1 x15 -1 x16 -1 x17 -1 x18 -1 x19 -1 x20 -1 x21 -1 x22 >= -10;
+1 x5 +1 x6 +1 x7 +1 x8 +1 x9 +1 x10 +1 x11 +1 x12 +1 x13 +1 x14 +1 x15 +1 x16 +1 x17 +1 x18 +1 x19 +1 x20 +1 x21 +1 x22 +1 x23 >= 9;
-1 x5 -1 x6 -1 x7 -1 x8 -1 x9 -1 x10 -1 x11 -1 x12 -1 x13 -1 x14 -1 x15 -1 x16 -1 x17 -1 x18 -1 x19 -1 x20 -1 x21 -1 x22 -1 x23 >= -10;
+1 x6 +1 x7 +1 x8 +1 x9 +1 x10 +1 x11 +1 x12 +1 x13 +1 x14 +1 x15 +1 x16 +1 x17 +1 x18 +1 x19 +1 x20 +1 x21 +1 x22 +1 x23 +1 x24 >= 9;
-1 x6 -1 x7 -1 x8 -1 x9 -1 x10 -1 x11 -1 x12 -1 x13 -1 x14 -1 x15 -1 x16 -1 x17 -1 x18 -1 x19 -1 x20 -1 x21 -1 x22 -1 x23 -1 x24 >= -10;
+1 x7 +1 x8 +1 x9 +1 x10 +1 x11 +1 x12 +1 x13 +1 x14 +1 x15 +1 x16 +1 x17 +1 x18 +1 x19 +1 x20 +1 x21 +1 x22 +1 x23 +1 x24 +1 x25 >= 9;
-1 x7 -1 x8 -1 x9 -1 x10 -1 x11 -1 x12 -1 x13 -1 x14 -1 x15 -1 x16 -1 x17 -1 x18 -1 x19 -1 x20 -1 x21 -1 x22 -1 x23 -1 x24 -1 x25 >= -10;
+1 x8 +1 x9 +1 x10 +1 x11 +1 x12 +1 x13 +1 x14 +1 x15 +1 x16 +1 x17 +1 x18 +1 x19 +1 x20 +1 x21 +1 x22 +1 x23 +1 x24 +1 x25 +1 x26 >= 9;
-1 x8 -1 x9 -1 x10 -1 x11 -1 x12 -1 x13 -1 x14 -1 x15 -1 x16 -1 x17 -1 x18 -1 x19 -1 x20 -1 x21 -1 x22 -1 x23 -1 x24 -1 x25 -1 x26 >= -10;
+1 x9 +1 x10 +1 x11 +1 x12 +1 x13 +1 x14 +1 x15 +1 x16 +1 x17 +1 x18 +1 x19 +1 x20 +1 x21 +1 x22 +1 x23 +1 x24 +1 x25 +1 x26 +1 x27 >= 9;
-1 x9 -1 x10 -1 x11 -1 x12 -1 x13 -1 x14 -1 x15 -1 x16 -1 x17 -1 x18 -1 x19 -1 x20 -1 x21 -1 x22 -1 x23 -1 x24 -1 x25 -1 x26 -1 x27 >= -10;
+1 x10 +1 x11 +1 x12 +1 x13 +1 x14 +1 x15 +1 x16 +1 x17 +1 x18 +1 x19 +1 x20 +1 x21 +1 x22 +1 x23 +1 x24 +1 x25 +1 x26 +1 x27 +1 x28 >= 9;
-1 x10 -1 x11 -1 x12 -1 x13 -1 x14 -1 x15 -1 x16 -1 x17 -1 x18 -1 x19 -1 x20 -1 x21 -1 x22 -1 x23 -1 x24 -1 x25 -1 x26 -1 x27 -1 x28 >= -10;
+1 x11 +1 x12 +1 x13 +1 x14 +1 x15 +1 x16 +1 x17 +1 x18 +1 x19 +1 x20 +1 x21 +1 x22 +1 x23 +1 x24 +1 x25 +1 x26 +1 x27 +1 x28 +1 x29 >= 9;
-1 x11 -1 x12 -1 x13 -1 x14 -1 x15 -1 x16 -1 x17 -1 x18 -1 x19 -1 x20 -1 x21 -1 x22 -1 x23 -1 x24 -1 x25 -1 x26 -1 x27 -1 x28 -1 x29 >= -10;
+1 x12 +1 x13 +1 x14 +1 x15 +1 x16 +1 x17 +1 x18 +1 x19 +1 x20 +1 x21 +1 x22 +1 x23 +1 x24 +1 x25 +1 x26 +1 x27 +1 x28 +1 x29 +1 x30 >= 9;
-1 x12 -1 x13 -1 x14 -1 x15 -1 x16 -1 x17 -1 x18 -1 x19 -1 x20 -1 x21 -1 x22 -1 x23 -1 x24 -1 x25 -1 x26 -1 x27 -1 x28 -1 x29 -1 x30 >= -10;
+1 x13 +1 x14 +1 x15 +1 x16 +1 x17 +1 x18 +1 x19 +1 x20 +1 x21 +1 x22 +1 x23 +1 x24 +1 x25 +1 x26 +1 x27 +1 x28 +1 x29 +1 x30 +1 x31 >= 9;
-1 x13 -1 x14 -1 x15 -1 x16 -1 x17 -1 x18 -1 x19 -1 x20 -1 x21 -1 x22 -1 x23 -1 x24 -1 x25 -1 x26 -1 x27 -1 x28 -1 x29 -1 x30 -1 x31 >= -10;
+1 x14 +1 x15 +1 x16 +1 x17 +1 x18 +1 x19 +1 x20 +1 x21 +1 x22 +1 x23 +1 x24 +1 x25 +1 x26 +1 x27 +1 x28 +1 x29 +1 x30 +1 x31 +1 x32 >= 9;
-1 x14 -1 x15 -1 x16 -1 x17 -1 x18 -1 x19 -1 x20 -1 x21 -1 x22 -1 x23 -1 x24 -1 x25 -1 x26 -1 x27 -1 x28 -1 x29 -1 x30 -1 x31 -1 x32 >= -10;
+1 x15 +1 x16 +1 x17 +1 x18 +1 x19 +1 x20 +1 x21 +1 x22 +1 x23 +1 x24 +1 x25 +1 x26 +1 x27 +1 x28 +1 x29 +1 x30 +1 x31 +1 x32 +1 x33 >= 9;
-1 x15 -1 x16 -1 x17 -1 x18 -1 x19 -1 x20 -1 x21 -1 x22 -1 x23 -1 x24 -1 x25 -1 x26 -1 x27 -1 x28 -1 x29 -1 x30 -1 x31 -1 x32 -1 x33 >= -10;
+1 x16 +1 x17 +1 x18 +1 x19 +1 x20 +1 x21 +1 x22 +1 x23 +1 x24 +1 x25 +1 x26 +1 x27 +1 x28 +1 x29 +1 x30 +1 x31 +1 x32 +1 x33 +1 x34 >= 9;
-1 x16 -1 x17 -1 x18 -1 x19 -1 x20 -1 x21 -1 x22 -1 x23 -1 x24 -1 x25 -1 x26 -1 x27 -1 x28 -1 x29 -1 x30 -1 x31 -1 x32 -1 x33 -1 x34 >= -10;
+1 x17 +1 x18 +1 x19 +1 x20 +1 x21 +1 x22 +1 x23 +1 x24 +1 x25 +1 x26 +1 x27 +1 x28 +1 x29 +1 x30 +1 x31 +1 x32 +1 x33 +1 x34 +1 x35 >= 9;
-1 x17 -1 x18 -1 x19 -1 x20 -1 x21 -1 x22 -1 x23 -1 x24 -1 x25 -1 x26 -1 x27 -1 x28 -1 x29 -1 x30 -1 x31 -1 x32 -1 x33 -1 x34 -1 x35 >= -10;
+1 x18 +1 x19 +1 x20 +1 x21 +1 x22 +1 x23 +1 x24 +1 x25 +1 x26 +1 x27 +1 x28 +1 x29 +1 x30 +1 x31 +1 x32 +1 x33 +1 x34 +1 x35 +1 x36 >= 9;
-1 x18 -1 x19 -1 x20 -1 x21 -1 x22 -1 x23 -1 x24 -1 x25 -1 x26 -1 x27 -1 x28 -1 x29 -1 x30 -1 x31 -1 x32 -1 x33 -1 x34 -1 x35 -1 x36 >= -10;
+1 x19 +1 x20 +1 x21 +1 x22 +1 x23 +1 x24 +1 x25 +1 x26 +1 x27 +1 x28 +1 x29 +1 x30 +1 x31 +1 x32 +1 x33 +1 x34 +1 x35 +1 x36 +1 x37 >= 9;
-1 x19 -1 x20 -1 x21 -1 x22 -1 x23 -1 x24 -1 x25 -1 x26 -1 x27 -1 x28 -1 x29 -1 x30 -1 x31 -1 x32 -1 x33 -1 x34 -1 x35 -1 x36 -1 x37 >= -10;
+1 x20 +1 x21 +1 x22 +1 x23 +1 x24 +1 x25 +1 x26 +1 x27 +1 x28 +1 x29 +1 x30 +1 x31 +1 x32 +1 x33 +1 x34 +1 x35 +1 x36 +1 x37 +1 x38 >= 9;
-1 x20 -1 x21 -1 x22 -1 x23 -1 x24 -1 x25 -1 x26 -1 x27 -1 x28 -1 x29 -1 x30 -1 x31 -1 x32 -1 x33 -1 x34 -1 x35 -1 x36 -1 x37 -1 x38 >= -10;
+1 x21 +1 x22 +1 x23 +1 x24 +1 x25 +1 x26 +1 x27 +1 x28 +1 x29 +1 x30 +1 x31 +1 x32 +1 x33 +1 x34 +1 x35 +1 x36 +1 x37 +1 x38 +1 x39 >= 9;
-1 x21 -1 x22 -1 x23 -1 x24 -1 x25 -1 x26 -1 x27 -1 x28 -1 x29 -1 x30 -1 x31 -1 x32 -1 x33 -1 x34 -1 x35 -1 x36 -1 x37 -1 x38 -1 x39 >= -10;
+1 x22 +1 x23 +1 x24 +1 x25 +1 x26 +1 x27 +1 x28 +1 x29 +1 x30 +1 x31 +1 x32 +1 x33 +1 x34 +1 x35 +1 x36 +1 x37 +1 x38 +1 x39 +1 x40 >= 9;
-1 x22 -1 x23 -1 x24 -1 x25 -1 x26 -1 x27 -1 x28 -1 x29 -1 x30 -1 x31 -1 x32 -1 x33 -1 x34 -1 x35 -1 x36 -1 x37 -1 x38 -1 x39 -1 x40 >= -10;
+1 x23 +1 x24 +1 x25 +1 x26 +1 x27 +1 x28 +1 x29 +1 x30 +1 x31 +1 x32 +1 x33 +1 x34 +1 x35 +1 x36 +1 x37 +1 x38 +1 x39 +1 x40 +1 x41 >= 9;
-1 x23 -1 x24 -1 x25 -1 x26 -1 x27 -1 x28 -1 x29 -1 x30 -1 x31 -1 x32 -1 x33 -1 x34 -1 x35 -1 x36 -1 x37 -1 x38 -1 x39 -1 x40 -1 x41 >= -10;
+1 x24 +1 x25 +1 x26 +1 x27 +1 x28 +1 x29 +1 x30 +1 x31 +1 x32 +1 x33 +1 x34 +1 x35 +1 x36 +1 x37 +1 x38 +1 x39 +1 x40 +1 x41 +1 x42 >= 9;
-1 x24 -1 x25 -1 x26 -1 x27 -1 x28 -1 x29 -1 x30 -1 x31 -1 x32 -1 x33 -1 x34 -1 x35 -1 x36 -1 x37 -1 x38 -1 x39 -1 x40 -1 x41 -1 x42 >= -10;
+1 x25 +1 x26 +1 x27 +1 x28 +1 x29 +1 x30 +1 x31 +1 x32 +1 x33 +1 x34 +1 x35 +1 x36 +1 x37 +1 x38 +1 x39 +1 x40 +1 x41 +1 x42 +1 x43 >= 9;
-1 x25 -1 x26 -1 x27 -1 x28 -1 x29 -1 x30 -1 x31 -1 x32 -1 x33 -1 x34 -1 x35 -1 x36 -1 x37 -1 x38 -1 x39 -1 x40 -1 x41 -1 x42 -1 x43 >= -10;
+1 x26 +1 x27 +1 x28 +1 x29 +1 x30 +1 x31 +1 x32 +1 x33 +1 x34 +1 x35 +1 x36 +1 x37 +1 x38 +1 x39 +1 x40 +1 x41 +1 x42 +1 x43 +1 x44 >= 9;
-1 x26 -1 x27 -1 x28 -1 x29 -1 x30 -1 x31 -1 x32 -1 x33 -1 x34 -1 x35 -1 x36 -1 x37 -1 x38 -1 x39 -1 x40 -1 x41 -1 x42 -1 x43 -1 x44 >= -10;
+1 x27 +1 x28 +1 x29 +1 x30 +1 x31 +1 x32 +1 x33 +1 x34 +1 x35 +1 x36 +1 x37 +1 x38 +1 x39 +1 x40 +1 x41 +1 x42 +1 x43 +1 x44 +1 x45 >= 9;
-1 x27 -1 x28 -1 x29 -1 x30 -1 x31 -1 x32 -1 x33 -1 x34 -1 x35 -1 x36 -1 x37 -1 x38 -1 x39 -1 x40 -1 x41 -1 x42 -1 x43 -1 x44 -1 x45 >= -10;
+1 x28 +1 x29 +1 x30 +1 x31 +1 x32 +1 x33 +1 x34 +1 x35 +1 x36 +1 x37 +1 x38 +1 x39 +1 x40 +1 x41 +1 x42 +1 x43 +1 x44 +1 x45 +1 x46 >= 9;
-1 x28 -1 x29 -1 x30 -1 x31 -1 x32 -1 x33 -1 x34 -1 x35 -1 x36 -1 x37 -1 x38 -1 x39 -1 x40 -1 x41 -1 x42 -1 x43 -1 x44 -1 x45 -1 x46 >= -10;
+1 x29 +1 x30 +1 x31 +1 x32 +1 x33 +1 x34 +1 x35 +1 x36 +1 x37 +1 x38 +1 x39 +1 x40 +1 x41 +1 x42 +1 x43 +1 x44 +1 x45 +1 x46 +1 x47 >= 9;
-1 x29 -1 x30 -1 x31 -1 x32 -1 x33 -1 x34 -1 x35 -1 x36 -1 x37 -1 x38 -1 x39 -1 x40 -1 x41 -1 x42 -1 x43 -1 x44 -1 x45 -1 x46 -1 x47 >= -10;
+1 x30 +1 x31 +1 x32 +1 x33 +1 x34 +1 x35 +1 x36 +1 x37 +1 x38 +1 x39 +1 x40 +1 x41 +1 x42 +1 x43 +1 x44 +1 x45 +1 x46 +1 x47 +1 x48 >= 9;
-1 x30 -1 x31 -1 x32 -1 x33 -1 x34 -1 x35 -1 x36 -1 x37 -1 x38 -1 x39 -1 x40 -1 x41 -1 x42 -1 x43 -1 x44 -1 x45 -1 x46 -1 x47 -1 x48 >= -10;
+1 x31 +1 x32 +1 x33 +1 x34 +1 x35 +1 x36 +1 x37 +1 x38 +1 x39 +1 x40 +1 x41 +1 x42 +1 x43 +1 x44 +1 x45 +1 x46 +1 x47 +1 x48 +1 x49 >= 9;
-1 x31 -1 x32 -1 x33 -1 x34 -1 x35 -1 x36 -1 x37 -1 x38 -1 x39 -1 x40 -1 x41 -1 x42 -1 x43 -1 x44 -1 x45 -1 x46 -1 x47 -1 x48 -1 x49 >= -10;
+1 x32 +1 x33 +1 x34 +1 x35 +1 x36 +1 x37 +1 x38 +1 x39 +1 x40 +1 x41 +1 x42 +1 x43 +1 x44 +1 x45 +1 x46 +1 x47 +1 x48 +1 x49 +1 x50 >= 9;
-1 x32 -1 x33 -1 x34 -1 x35 -1 x36 -1 x37 -1 x38 -1 x39 -1 x40 -1 x41 -1 x42 -1 x43 -1 x44 -1 x45 -1 x46 -1 x47 -1 x48 -1 x49 -1 x50 >= -10;
+1 x33 +1 x34 +1 x35 +1 x36 +1 x37 +1 x38 +1 x39 +1 x40 +1 x41 +1 x42 +1 x43 +1 x44 +1 x45 +1 x46 +1 x47 +1 x48 +1 x49 +1 x50 +1 x51 >= 9;
-1 x33 -1 x34 -1 x35 -1 x36 -1 x37 -1 x38 -1 x39 -1 x40 -1 x41 -1 x42 -1 x43 -1 x44 -1 x45 -1 x46 -1 x47 -1 x48 -1 x49 -1 x50 -1 x51 >= -10;
+1 x34 +1 x35 +1 x36 +1 x37 +1 x38 +1 x39 +1 x40 +1 x41 +1 x42 +1 x43 +1 x44 +1 x45 +1 x46 +1 x47 +1 x48 +1 x49 +1 x50 +1 x51 +1 x52 >= 9;
-1 x34 -1 x35 -1 x36 -1 x37 -1 x38 -1 x39 -1 x40 -1 x41 -1 x42 -1 x43 -1 x44 -1 x45 -1 x46 -1 x47 -1 x48 -1 x49 -1 x50 -1 x51 -1 x52 >= -10;
+1 x35 +1 x36 +1 x37 +1 x38 +1 x39 +1 x40 +1 x41 +1 x42 +1 x43 +1 x44 +1 x45 +1 x46 +1 x47 +1 x48 +1 x49 +1 x50 +1 x51 +1 x52 +1 x53 >= 9;
-1 x35 -1 x36 -1 x37 -1 x38 -1 x39 -1 x40 -1 x41 -1 x42 -1 x43 -1 x44 -1 x45 -1 x46 -1 x47 -1 x48 -1 x49 -1 x50 -1 x51 -1 x52 -1 x53 >= -10;
+1 x36 +1 x37 +1 x38 +1 x39 +1 x40 +1 x41 +1 x42 +1 x43 +1 x44 +1 x45 +1 x46 +1 x47 +1 x48 +1 x49 +1 x50 +1 x51 +1 x52 +1 x53 +1 x54 >= 9;
-1 x36 -1 x37 -1 x38 -1 x39 -1 x40 -1 x41 -1 x42 -1 x43 -1 x44 -1 x45 -1 x46 -1 x47 -1 x48 -1 x49 -1 x50 -1 x51 -1 x52 -1 x53 -1 x54 >= -10;
+1 x37 +1 x38 +1 x39 +1 x40 +1 x41 +1 x42 +1 x43 +1 x44 +1 x45 +1 x46 +1 x47 +1 x48 +1 x49 +1 x50 +1 x51 +1 x52 +1 x53 +1 x54 +1 x55 >= 9;
-1 x37 -1 x38 -1 x39 -1 x40 -1 x41 -1 x42 -1 x43 -1 x44 -1 x45 -1 x46 -1 x47 -1 x48 -1 x49 -1 x50 -1 x51 -1 x52 -1 x53 -1 x54 -1 x55 >= -10;
+1 x38 +1 x39 +1 x40 +1 x41 +1 x42 +1 x43 +1 x44 +1 x45 +1 x46 +1 x47 +1 x48 +1 x49 +1 x50 +1 x51 +1 x52 +1 x53 +1 x54 +1 x55 +1 x56 >= 9;
-1 x38 -1 x39 -1 x40 -1 x41 -1 x42 -1 x43 -1 x44 -1 x45 -1 x46 -1 x47 -1 x48 -1 x49 -1 x50 -1 x51 -1 x52 -1 x53 -1 x54 -1 x55 -1 x56 >= -10;
+1 x39 +1 x40 +1 x41 +1 x42 +1 x43 +1 x44 +1 x45 +1 x46 +1 x47 +1 x48 +1 x49 +1 x50 +1 x51 +1 x52 +1 x53 +1 x54 +1 x55 +1 x56 +1 x57 >= 9;
-1 x39 -1 x40 -1 x41 -1 x42 -1 x43 -1 x44 -1 x45 -1 x46 -1 x47 -1 x48 -1 x49 -1 x50 -1 x51 -1 x52 -1 x53 -1 x54 -1 x55 -1 x56 -1 x57 >= -10;
+1 x40 +1 x41 +1 x42 +1 x43 +1 x44 +1 x45 +1 x46 +1 x47 +1 x48 +1 x49 +1 x50 +1 x51 +1 x52 +1 x53 +1 x54 +1 x55 +1 x56 +1 x57 +1 x58 >= 9;
-1 x40 -1 x41 -1 x42 -1 x43 -1 x44 -1 x45 -1 x46 -1 x47 -1 x48 -1 x49 -1 x50 -1 x51 -1 x52 -1 x53 -1 x54 -1 x55 -1 x56 -1 x57 -1 x58 >= -10;
+1 x41 +1 x42 +1 x43 +1 x44 +1 x45 +1 x46 +1 x47 +1 x48 +1 x49 +1 x50 +1 x51 +1 x52 +1 x53 +1 x54 +1 x55 +1 x56 +1 x57 +1 x58 +1 x59 >= 9;
-1 x41 -1 x42 -1 x43 -1 x44 -1 x45 -1 x46 -1 x47 -1 x48 -1 x49 -1 x50 -1 x51 -1 x52 -1 x53 -1 x54 -1 x55 -1 x56 -1 x57 -1 x58 -1 x59 >= -10;
+1 x42 +1 x43 +1 x44 +1 x45 +1 x46 +1 x47 +1 x48 +1 x49 +1 x50 +1 x51 +1 x52 +1 x53 +1 x54 +1 x55 +1 x56 +1 x57 +1 x58 +1 x59 +1 x60 >= 9;
-1 x42 -1 x43 -1 x44 -1 x45 -1 x46 -1 x47 -1 x48 -1 x49 -1 x50 -1 x51 -1 x52 -1 x53 -1 x54 -1 x55 -1 x56 -1 x57 -1 x58 -1 x59 -1 x60 >= -10;
+1 x43 +1 x44 +1 x45 +1 x46 +1 x47 +1 x48 +1 x49 +1 x50 +1 x51 +1 x52 +1 x53 +1 x54 +1 x55 +1 x56 +1 x57 +1 x58 +1 x59 +1 x60 +1 x61 >= 9;
-1 x43 -1 x44 -1 x45 -1 x46 -1 x47 -1 x48 -1 x49 -1 x50 -1 x51 -1 x52 -1 x53 -1 x54 -1 x55 -1 x56 -1 x57 -1 x58 -1 x59 -1 x60 -1 x61 >= -10;
+1 x44 +1 x45 +1 x46 +1 x47 +1 x48 +1 x49 +1 x50 +1 x51 +1 x52 +1 x53 +1 x54 +1 x55 +1 x56 +1 x57 +1 x58 +1 x59 +1 x60 +1 x61 +1 x62 >= 9;
-1 x44 -1 x45 -1 x46 -1 x47 -1 x48 -1 x49 -1 x50 -1 x51 -1 x52 -1 x53 -1 x54 -1 x55 -1 x56 -1 x57 -1 x58 -1 x59 -1 x60 -1 x61 -1 x62 >= -10;
+1 x45 +1 x46 +1 x47 +1 x48 +1 x49 +1 x50 +1 x51 +1 x52 +1 x53 +1 x54 +1 x55 +1 x56 +1 x57 +1 x58 +1 x59 +1 x60 +1 x61 +1 x62 +1 x63 >= 9;
-1 x45 -1 x46 -1 x47 -1 x48 -1 x49 -1 x50 -1 x51 -1 x52 -1 x53 -1 x54 -1 x55 -1 x56 -1 x57 -1 x58 -1 x59 -1 x60 -1 x61 -1 x62 -1 x63 >= -10;
+1 x46 +1 x47 +1 x48 +1 x49 +1 x50 +1 x51 +1 x52 +1 x53 +1 x54 +1 x55 +1 x56 +1 x57 +1 x58 +1 x59 +1 x60 +1 x61 +1 x62 +1 x63 +1 x64 >= 9;
-1 x46 -1 x47 -1 x48 -1 x49 -1 x50 -1 x51 -1 x52 -1 x53 -1 x54 -1 x55 -1 x56 -1 x57 -1 x58 -1 x59 -1 x60 -1 x61 -1 x62 -1 x63 -1 x64 >= -10;
+1 x47 +1 x48 +1 x49 +1 x50 +1 x51 +1 x52 +1 x53 +1 x54 +1 x55 +1 x56 +1 x57 +1 x58 +1 x59 +1 x60 +1 x61 +1 x62 +1 x63 +1 x64 +1 x65 >= 9;
-1 x47 -1 x48 -1 x49 -1 x50 -1 x51 -1 x52 -1 x53 -1 x54 -1 x55 -1 x56 -1 x57 -1 x58 -1 x59 -1 x60 -1 x61 -1 x62 -1 x63 -1 x64 -1 x65 >= -10;
+1 x48 +1 x49 +1 x50 +1 x51 +1 x52 +1 x53 +1 x54 +1 x55 +1 x56 +1 x57 +1 x58 +1 x59 +1 x60 +1 x61 +1 x62 +1 x63 +1 x64 +1 x65 +1 x66 >= 9;
-1 x48 -1 x49 -1 x50 -1 x51 -1 x52 -1 x53 -1 x54 -1 x55 -1 x56 -1 x57 -1 x58 -1 x59 -1 x60 -1 x61 -1 x62 -1 x63 -1 x64 -1 x65 -1 x66 >= -10;
+1 x49 +1 x50 +1 x51 +1 x52 +1 x53 +1 x54 +1 x55 +1 x56 +1 x57 +1 x58 +1 x59 +1 x60 +1 x61 +1 x62 +1 x63 +1 x64 +1 x65 +1 x66 +1 x67 >= 9;
-1 x49 -1 x50 -1 x51 -1 x52 -1 x53 -1 x54 -1 x55 -1 x56 -1 x57 -1 x58 -1 x59 -1 x60 -1 x61 -1 x62 -1 x63 -1 x64 -1 x65 -1 x66 -1 x67 >= -10;
+1 x50 +1 x51 +1 x52 +1 x53 +1 x54 +1 x55 +1 x56 +1 x57 +1 x58 +1 x59 +1 x60 +1 x61 +1 x62 +1 x63 +1 x64 +1 x65 +1 x66 +1 x67 +1 x68 >= 9;
-1 x50 -1 x51 -1 x52 -1 x53 -1 x54 -1 x55 -1 x56 -1 x57 -1 x58 -1 x59 -1 x60 -1 x61 -1 x62 -1 x63 -1 x64 -1 x65 -1 x66 -1 x67 -1 x68 >= -10;
+1 x51 +1 x52 +1 x53 +1 x54 +1 x55 +1 x56 +1 x57 +1 x58 +1 x59 +1 x60 +1 x61 +1 x62 +1 x63 +1 x64 +1 x65 +1 x66 +1 x67 +1 x68 +1 x69 >= 9;
-1 x51 -1 x52 -1 x53 -1 x54 -1 x55 -1 x56 -1 x57 -1 x58 -1 x59 -1 x60 -1 x61 -1 x62 -1 x63 -1 x64 -1 x65 -1 x66 -1 x67 -1 x68 -1 x69 >= -10;
+1 x52 +1 x53 +1 x54 +1 x55 +1 x56 +1 x57 +1 x58 +1 x59 +1 x60 +1 x61 +1 x62 +1 x63 +1 x64 +1 x65 +1 x66 +1 x67 +1 x68 +1 x69 +1 x70 >= 9;
-1 x52 -1 x53 -1 x54 -1 x55 -1 x56 -1 x57 -1 x58 -1 x59 -1 x60 -1 x61 -1 x62 -1 x63 -1 x64 -1 x65 -1 x66 -1 x67 -1 x68 -1 x69 -1 x70 >= -10;
+1 x53 +1 x54 +1 x55 +1 x56 +1 x57 +1 x58 +1 x59 +1 x60 +1 x61 +1 x62 +1 x63 +1 x64 +1 x65 +1 x66 +1 x67 +1 x68 +1 x69 +1 x70 +1 x71 >= 9;
-1 x53 -1 x54 -1 x55 -1 x56 -1 x57 -1 x58 -1 x59 -1 x60 -1 x61 -1 x62 -1 x63 -1 x64 -1 x65 -1 x66 -1 x67 -1 x68 -1 x69 -1 x70 -1 x71 >= -10;
+1 x54 +1 x55 +1 x56 +1 x57 +1 x58 +1 x59 +1 x60 +1 x61 +1 x62 +1 x63 +1 x64 +1 x65 +1 x66 +1 x67 +1 x68 +1 x69 +1 x70 +1 x71 +1 x72 >= 9;
-1 x54 -1 x55 -1 x56 -1 x57 -1 x58 -1 x59 -1 x60 -1 x61 -1 x62 -1 x63 -1 x64 -1 x65 -1 x66 -1 x67 -1 x68 -1 x69 -1 x70 -1 x71 -1 x72 >= -10;
+1 x55 +1 x56 +1 x57 +1 x58 +1 x59 +1 x60 +1 x61 +1 x62 +1 x63 +1 x64 +1 x65 +1 x66 +1 x67 +1 x68 +1 x69 +1 x70 +1 x71 +1 x72 +1 x73 >= 9;
-1 x55 -1 x56 -1 x57 -1 x58 -1 x59 -1 x60 -1 x61 -1 x62 -1 x63 -1 x64 -1 x65 -1 x66 -1 x67 -1 x68 -1 x69 -1 x70 -1 x71 -1 x72 -1 x73 >= -10;
+1 x56 +1 x57 +1 x58 +1 x59 +1 x60 +1 x61 +1 x62 +1 x63 +1 x64 +1 x65 +1 x66 +1 x67 +1 x68 +1 x69 +1 x70 +1 x71 +1 x72 +1 x73 +1 x74 >= 9;
-1 x56 -1 x57 -1 x58 -1 x59 -1 x60 -1 x61 -1 x62 -1 x63 -1 x64 -1 x65 -1 x66 -1 x67 -1 x68 -1 x69 -1 x70 -1 x71 -1 x72 -1 x73 -1 x74 >= -10;
+1 x57 +1 x58 +1 x59 +1 x60 +1 x61 +1 x62 +1 x63 +1 x64 +1 x65 +1 x66 +1 x67 +1 x68 +1 x69 +1 x70 +1 x71 +1 x72 +1 x73 +1 x74 +1 x75 >= 9;
-1 x57 -1 x58 -1 x59 -1 x60 -1 x61 -1 x62 -1 x63 -1 x64 -1 x65 -1 x66 -1 x67 -1 x68 -1 x69 -1 x70 -1 x71 -1 x72 -1 x73 -1 x74 -1 x75 >= -10;
+1 x58 +1 x59 +1 x60 +1 x61 +1 x62 +1 x63 +1 x64 +1 x65 +1 x66 +1 x67 +1 x68 +1 x69 +1 x70 +1 x71 +1 x72 +1 x73 +1 x74 +1 x75 +1 x76 >= 9;
-1 x58 -1 x59 -1 x60 -1 x61 -1 x62 -1 x63 -1 x64 -1 x65 -1 x66 -1 x67 -1 x68 -1 x69 -1 x70 -1 x71 -1 x72 -1 x73 -1 x74 -1 x75 -1 x76 >= -10;
+1 x59 +1 x60 +1 x61 +1 x62 +1 x63 +1 x64 +1 x65 +1 x66 +1 x67 +1 x68 +1 x69 +1 x70 +1 x71 +1 x72 +1 x73 +1 x74 +1 x75 +1 x76 +1 x77 >= 9;
-1 x59 -1 x60 -1 x61 -1 x62 -1 x63 -1 x64 -1 x65 -1 x66 -1 x67 -1 x68 -1 x69 -1 x70 -1 x71 -1 x72 -1 x73 -1 x74 -1 x75 -1 x76 -1 x77 >= -10;
+1 x60 +1 x61 +1 x62 +1 x63 +1 x64 +1 x65 +1 x66 +1 x67 +1 x68 +1 x69 +1 x70 +1 x71 +1 x72 +1 x73 +1 x74 +1 x75 +1 x76 +1 x77 +1 x78 >= 9;
-1 x60 -1 x61 -1 x62 -1 x63 -1 x64 -1 x65 -1 x66 -1 x67 -1 x68 -1 x69 -1 x70 -1 x71 -1 x72 -1 x73 -1 x74 -1 x75 -1 x76 -1 x77 -1 x78 >= -10;
+1 x61 +1 x62 +1 x63 +1 x64 +1 x65 +1 x66 +1 x67 +1 x68 +1 x69 +1 x70 +1 x71 +1 x72 +1 x73 +1 x74 +1 x75 +1 x76 +1 x77 +1 x78 +1 x79 >= 9;
-1 x61 -1 x62 -1 x63 -1 x64 -1 x65 -1 x66 -1 x67 -1 x68 -1 x69 -1 x70 -1 x71 -1 x72 -1 x73 -1 x74 -1 x75 -1 x76 -1 x77 -1 x78 -1 x79 >= -10;
+1 x62 +1 x63 +1 x64 +1 x65 +1 x66 +1 x67 +1 x68 +1 x69 +1 x70 +1 x71 +1 x72 +1 x73 +1 x74 +1 x75 +1 x76 +1 x77 +1 x78 +1 x79 +1 x80 >= 9;
-1 x62 -1 x63 -1 x64 -1 x65 -1 x66 -1 x67 -1 x68 -1 x69 -1 x70 -1 x71 -1 x72 -1 x73 -1 x74 -1 x75 -1 x76 -1 x77 -1 x78 -1 x79 -1 x80 >= -10;
+1 x63 +1 x64 +1 x65 +1 x66 +1 x67 +1 x68 +1 x69 +1 x70 +1 x71 +1 x72 +1 x73 +1 x74 +1 x75 +1 x76 +1 x77 +1 x78 +1 x79 +1 x80 +1 x81 >= 9;
-1 x63 -1 x64 -1 x65 -1 x66 -1 x67 -1 x68 -1 x69 -1 x70 -1 x71 -1 x72 -1 x73 -1 x74 -1 x75 -1 x76 -1 x77 -1 x78 -1 x79 -1 x80 -1 x81 >= -10;
+1 x64 +1 x65 +1 x66 +1 x67 +1 x68 +1 x69 +1 x70 +1 x71 +1 x72 +1 x73 +1 x74 +1 x75 +1 x76 +1 x77 +1 x78 +1 x79 +1 x80 +1 x81 +1 x82 >= 9;
-1 x64 -1 x65 -1 x66 -1 x67 -1 x68 -1 x69 -1 x70 -1 x71 -1 x72 -1 x73 -1 x74 -1 x75 -1 x76 -1 x77 -1 x78 -1 x79 -1 x80 -1 x81 -1 x82 >= -10;
+1 x65 +1 x66 +1 x67 +1 x68 +1 x69 +1 x70 +1 x71 +1 x72 +1 x73 +1 x74 +1 x75 +1 x76 +1 x77 +1 x78 +1 x79 +1 x80 +1 x81 +1 x82 +1 x83 >= 9;
-1 x65 -1 x66 -1 x67 -1 x68 -1 x69 -1 x70 -1 x71 -1 x72 -1 x73 -1 x74 -1 x75 -1 x76 -1 x77 -1 x78 -1 x79 -1 x80 -1 x81 -1 x82 -1 x83 >= -10;
+1 x66 +1 x67 +1 x68 +1 x69 +1 x70 +1 x71 +1 x72 +1 x73 +1 x74 +1 x75 +1 x76 +1 x77 +1 x78 +1 x79 +1 x80 +1 x81 +1 x82 +1 x83 +1 x84 >= 9;
-1 x66 -1 x67 -1 x68 -1 x69 -1 x70 -1 x71 -1 x72 -1 x73 -1 x74 -1 x75 -1 x76 -1 x77 -1 x78 -1 x79 -1 x80 -1 x81 -1 x82 -1 x83 -1 x84 >= -10;
+1 x67 +1 x68 +1 x69 +1 x70 +1 x71 +1 x72 +1 x73 +1 x74 +1 x75 +1 x76 +1 x77 +1 x78 +1 x79 +1 x80 +1 x81 +1 x82 +1 x83 +1 x84 +1 x85 >= 9;
-1 x67 -1 x68 -1 x69 -1 x70 -1 x71 -1 x72 -1 x73 -1 x74 -1 x75 -1 x76 -1 x77 -1 x78 -1 x79 -1 x80 -1 x81 -1 x82 -1 x83 -1 x84 -1 x85 >= -10;
+1 x68 +1 x69 +1 x70 +1 x71 +1 x72 +1 x73 +1 x74 +1 x75 +1 x76 +1 x77 +1 x78 +1 x79 +1 x80 +1 x81 +1 x82 +1 x83 +1 x84 +1 x85 +1 x86 >= 9;
-1 x68 -1 x69 -1 x70 -1 x71 -1 x72 -1 x73 -1 x74 -1 x75 -1 x76 -1 x77 -1 x78 -1 x79 -1 x80 -1 x81 -1 x82 -1 x83 -1 x84 -1 x85 -1 x86 >= -10;
+1 x69 +1 x70 +1 x71 +1 x72 +1 x73 +1 x74 +1 x75 +1 x76 +1 x77 +1 x78 +1 x79 +1 x80 +1 x81 +1 x82 +1 x83 +1 x84 +1 x85 +1 x86 +1 x87 >= 9;
-1 x69 -1 x70 -1 x71 -1 x72 -1 x73 -1 x74 -1 x75 -1 x76 -1 x77 -1 x78 -1 x79 -1 x80 -1 x81 -1 x82 -1 x83 -1 x84 -1 x85 -1 x86 -1 x87 >= -10;
+1 x70 +1 x71 +1 x72 +1 x73 +1 x74 +1 x75 +1 x76 +1 x77 +1 x78 +1 x79 +1 x80 +1 x81 +1 x82 +1 x83 +1 x84 +1 x85 +1 x86 +1 x87 +1 x88 >= 9;
-1 x70 -1 x71 -1 x72 -1 x73 -1 x74 -1 x75 -1 x76 -1 x77 -1 x78 -1 x79 -1 x80 -1 x81 -1 x82 -1 x83 -1 x84 -1 x85 -1 x86 -1 x87 -1 x88 >= -10;
+1 x71 +1 x72 +1 x73 +1 x74 +1 x75 +1 x76 +1 x77 +1 x78 +1 x79 +1 x80 +1 x81 +1 x82 +1 x83 +1 x84 +1 x85 +1 x86 +1 x87 +1 x88 +1 x89 >= 9;
-1 x71 -1 x72 -1 x73 -1 x74 -1 x75 -1 x76 -1 x77 -1 x78 -1 x79 -1 x80 -1 x81 -1 x82 -1 x83 -1 x84 -1 x85 -1 x86 -1 x87 -1 x88 -1 x89 >= -10;
+1 x72 +1 x73 +1 x74 +1 x75 +1 x76 +1 x77 +1 x78 +1 x79 +1 x80 +1 x81 +1 x82 +1 x83 +1 x84 +1 x85 +1 x86 +1 x87 +1 x88 +1 x89 +1 x90 >= 9;
-1 x72 -1 x73 -1 x74 -1 x75 -1 x76 -1 x77 -1 x78 -1 x79 -1 x80 -1 x81 -1 x82 -1 x83 -1 x84 -1 x85 -1 x86 -1 x87 -1 x88 -1 x89 -1 x90 >= -10;
+1 x73 +1 x74 +1 x75 +1 x76 +1 x77 +1 x78 +1 x79 +1 x80 +1 x81 +1 x82 +1 x83 +1 x84 +1 x85 +1 x86 +1 x87 +1 x88 +1 x89 +1 x90 +1 x91 >= 9;
-1 x73 -1 x74 -1 x75 -1 x76 -1 x77 -1 x78 -1 x79 -1 x80 -1 x81 -1 x82 -1 x83 -1 x84 -1 x85 -1 x86 -1 x87 -1 x88 -1 x89 -1 x90 -1 x91 >= -10;
+1 x74 +1 x75 +1 x76 +1 x77 +1 x78 +1 x79 +1 x80 +1 x81 +1 x82 +1 x83 +1 x84 +1 x85 +1 x86 +1 x87 +1 x88 +1 x89 +1 x90 +1 x91 +1 x92 >= 9;
-1 x74 -1 x75 -1 x76 -1 x77 -1 x78 -1 x79 -1 x80 -1 x81 -1 x82 -1 x83 -1 x84 -1 x85 -1 x86 -1 x87 -1 x88 -1 x89 -1 x90 -1 x91 -1 x92 >= -10;
+1 x75 +1 x76 +1 x77 +1 x78 +1 x79 +1 x80 +1 x81 +1 x82 +1 x83 +1 x84 +1 x85 +1 x86 +1 x87 +1 x88 +1 x89 +1 x90 +1 x91 +1 x92 +1 x93 >= 9;
-1 x75 -1 x76 -1 x77 -1 x78 -1 x79 -1 x80 -1 x81 -1 x82 -1 x83 -1 x84 -1 x85 -1 x86 -1 x87 -1 x88 -1 x89 -1 x90 -1 x91 -1 x92 -1 x93 >= -10;
+1 x76 +1 x77 +1 x78 +1 x79 +1 x80 +1 x81 +1 x82 +1 x83 +1 x84 +1 x85 +1 x86 +1 x87 +1 x88 +1 x89 +1 x90 +1 x91 +1 x92 +1 x93 +1 x94 >= 9;
-1 x76 -1 x77 -1 x78 -1 x79 -1 x80 -1 x81 -1 x82 -1 x83 -1 x84 -1 x85 -1 x86 -1 x87 -1 x88 -1 x89 -1 x90 -1 x91 -1 x92 -1 x93 -1 x94 >= -10;
+1 x77 +1 x78 +1 x79 +1 x80 +1 x81 +1 x82 +1 x83 +1 x84 +1 x85 +1 x86 +1 x87 +1 x88 +1 x89 +1 x90 +1 x91 +1 x92 +1 x93 +1 x94 +1 x95 >= 9;
-1 x77 -1 x78 -1 x79 -1 x80 -1 x81 -1 x82 -1 x83 -1 x84 -1 x85 -1 x86 -1 x87 -1 x88 -1 x89 -1 x90 -1 x91 -1 x92 -1 x93 -1 x94 -1 x95 >= -10;
+1 x78 +1 x79 +1 x80 +1 x81 +1 x82 +1 x83 +1 x84 +1 x85 +1 x86 +1 x87 +1 x88 +1 x89 +1 x90 +1 x91 +1 x92 +1 x93 +1 x94 +1 x95 +1 x96 >= 9;
-1 x78 -1 x79 -1 x80 -1 x81 -1 x82 -1 x83 -1 x84 -1 x85 -1 x86 -1 x87 -1 x88 -1 x89 -1 x90 -1 x91 -1 x92 -1 x93 -1 x94 -1 x95 -1 x96 >= -10;
+1 x79 +1 x80 +1 x81 +1 x82 +1 x83 +1 x84 +1 x85 +1 x86 +1 x87 +1 x88 +1 x89 +1 x90 +1 x91 +1 x92 +1 x93 +1 x94 +1 x95 +1 x96 +1 x97 >= 9;
-1 x79 -1 x80 -1 x81 -1 x82 -1 x83 -1 x84 -1 x85 -1 x86 -1 x87 -1 x88 -1 x89 -1 x90 -1 x91 -1 x92 -1 x93 -1 x94 -1 x95 -1 x96 -1 x97 >= -10;
+1 x80 +1 x81 +1 x82 +1 x83 +1 x84 +1 x85 +1 x86 +1 x87 +1 x88 +1 x89 +1 x90 +1 x91 +1 x92 +1 x93 +1 x94 +1 x95 +1 x96 +1 x97 +1 x98 >= 9;
-1 x80 -1 x81 -1 x82 -1 x83 -1 x84 -1 x85 -1 x86 -1 x87 -1 x88 -1 x89 -1 x90 -1 x91 -1 x92 -1 x93 -1 x94 -1 x95 -1 x96 -1 x97 -1 x98 >= -10;
+1 x81 +1 x82 +1 x83 +1 x84 +1 x85 +1 x86 +1 x87 +1 x88 +1 x89 +1 x90 +1 x91 +1 x92 +1 x93 +1 x94 +1 x95 +1 x96 +1 x97 +1 x98 +1 x99 >= 9;
-1 x81 -1 x82 -1 x83 -1 x84 -1 x85 -1 x86 -1 x87 -1 x88 -1 x89 -1 x90 -1 x91 -1 x92 -1 x93 -1 x94 -1 x95 -1 x96 -1 x97 -1 x98 -1 x99 >= -10;
+1 x82 +1 x83 +1 x84 +1 x85 +1 x86 +1 x87 +1 x88 +1 x89 +1 x90 +1 x91 +1 x92 +1 x93 +1 x94 +1 x95 +1 x96 +1 x97 +1 x98 +1 x99 +1 x100 >= 9;
-1 x82 -1 x83 -1 x84 -1 x85 -1 x86 -1 x87 -1 x88 -1 x89 -1 x90 -1 x91 -1 x92 -1 x93 -1 x94 -1 x95 -1 x96 -1 x97 -1 x98 -1 x99 -1 x100 >= -10;
+1 x83 +1 x84 +1 x85 +1 x86 +1 x87 +1 x88 +1 x89 +1 x90 +1 x91 +1 x92 +1 x93 +1 x94 +1 x95 +1 x96 +1 x97 +1 x98 +1 x99 +1 x100 +1 x101 >= 9;
-1 x83 -1 x84 -1 x85 -1 x86 -1 x87 -1 x88 -1 x89 -1 x90 -1 x91 -1 x92 -1 x93 -1 x94 -1 x95 -1 x96 -1 x97 -1 x98 -1 x99 -1 x100 -1 x101 >= -10;
+1 x84 +1 x85 +1 x86 +1 x87 +1 x88 +1 x89 +1 x90 +1 x91 +1 x92 +1 x93 +1 x94 +1 x95 +1 x96 +1 x97 +1 x98 +1 x99 +1 x100 +1 x101 +1 x102 >= 9;
-1 x84 -1 x85 -1 x86 -1 x87 -1 x88 -1 x89 -1 x90 -1 x91 -1 x92 -1 x93 -1 x94 -1 x95 -1 x96 -1 x97 -1 x98 -1 x99 -1 x100 -1 x101 -1 x102 >= -10;
+1 x85 +1 x86 +1 x87 +1 x88 +1 x89 +1 x90 +1 x91 +1 x92 +1 x93 +1 x94 +1 x95 +1 x96 +1 x97 +1 x98 +1 x99 +1 x100 +1 x101 +1 x102 +1 x103 >= 9;
-1 x85 -1 x86 -1 x87 -1 x88 -1 x89 -1 x90 -1 x91 -1 x92 -1 x93 -1 x94 -1 x95 -1 x96 -1 x97 -1 x98 -1 x99 -1 x100 -1 x101 -1 x102 -1 x103 >= -10;
+1 x86 +1 x87 +1 x88 +1 x89 +1 x90 +1 x91 +1 x92 +1 x93 +1 x94 +1 x95 +1 x96 +1 x97 +1 x98 +1 x99 +1 x100 +1 x101 +1 x102 +1 x103 +1 x104 >= 9;
-1 x86 -1 x87 -1 x88 -1 x89 -1 x90 -1 x91 -1 x92 -1 x93 -1 x94 -1 x95 -1 x96 -1 x97 -1 x98 -1 x99 -1 x100 -1 x101 -1 x102 -1 x103 -1 x104 >= -10;
+1 x87 +1 x88 +1 x89 +1 x90 +1 x91 +1 x92 +1 x93 +1 x94 +1 x95 +1 x96 +1 x97 +1 x98 +1 x99 +1 x100 +1 x101 +1 x102 +1 x103 +1 x104 +1 x105 >= 9;
-1 x87 -1 x88 -1 x89 -1 x90 -1 x91 -1 x92 -1 x93 -1 x94 -1 x95 -1 x96 -1 x97 -1 x98 -1 x99 -1 x100 -1 x101 -1 x102 -1 x103 -1 x104 -1 x105 >= -10;
+1 x88 +1 x89 +1 x90 +1 x91 +1 x92 +1 x93 +1 x94 +1 x95 +1 x96 +1 x97 +1 x98 +1 x99 +1 x100 +1 x101 +1 x102 +1 x103 +1 x104 +1 x105 +1 x106 >= 9;
-1 x88 -1 x89 -1 x90 -1 x91 -1 x92 -1 x93 -1 x94 -1 x95 -1 x96 -1 x97 -1 x98 -1 x99 -1 x100 -1 x101 -1 x102 -1 x103 -1 x104 -1 x105 -1 x106 >= -10;
+1 x89 +1 x90 +1 x91 +1 x92 +1 x93 +1 x94 +1 x95 +1 x96 +1 x97 +1 x98 +1 x99 +1 x100 +1 x101 +1 x102 +1 x103 +1 x104 +1 x105 +1 x106 +1 x107 >= 9;
-1 x89 -1 x90 -1 x91 -1 x92 -1 x93 -1 x94 -1 x95 -1 x96 -1 x97 -1 x98 -1 x99 -1 x100 -1 x101 -1 x102 -1 x103 -1 x104 -1 x105 -1 x106 -1 x107 >= -10;
+1 x90 +1 x91 +1 x92 +1 x93 +1 x94 +1 x95 +1 x96 +1 x97 +1 x98 +1 x99 +1 x100 +1 x101 +1 x102 +1 x103 +1 x104 +1 x105 +1 x106 +1 x107 +1 x108 >= 9;
-1 x90 -1 x91 -1 x92 -1 x93 -1 x94 -1 x95 -1 x96 -1 x97 -1 x98 -1 x99 -1 x100 -1 x101 -1 x102 -1 x103 -1 x104 -1 x105 -1 x106 -1 x107 -1 x108 >= -10;
+1 x91 +1 x92 +1 x93 +1 x94 +1 x95 +1 x96 +1 x97 +1 x98 +1 x99 +1 x100 +1 x101 +1 x102 +1 x103 +1 x104 +1 x105 +1 x106 +1 x107 +1 x108 +1 x109 >= 9;
-1 x91 -1 x92 -1 x93 -1 x94 -1 x95 -1 x96 -1 x97 -1 x98 -1 x99 -1 x100 -1 x101 -1 x102 -1 x103 -1 x104 -1 x105 -1 x106 -1 x107 -1 x108 -1 x109 >= -10;
+1 x92 +1 x93 +1 x94 +1 x95 +1 x96 +1 x97 +1 x98 +1 x99 +1 x100 +1 x101 +1 x102 +1 x103 +1 x104 +1 x105 +1 x106 +1 x107 +1 x108 +1 x109 +1 x110 >= 9;
-1 x92 -1 x93 -1 x94 -1 x95 -1 x96 -1 x97 -1 x98 -1 x99 -1 x100 -1 x101 -1 x102 -1 x103 -1 x104 -1 x105 -1 x106 -1 x107 -1 x108 -1 x109 -1 x110 >= -10;
+1 x93 +1 x94 +1 x95 +1 x96 +1 x97 +1 x98 +1 x99 +1 x100 +1 x101 +1 x102 +1 x103 +1 x104 +1 x105 +1 x106 +1 x107 +1 x108 +1 x109 +1 x110 +1 x111 >= 9;
-1 x93 -1 x94 -1 x95 -1 x96 -1 x97 -1 x98 -1 x99 -1 x100 -1 x101 -1 x102 -1 x103 -1 x104 -1 x105 -1 x106 -1 x107 -1 x108 -1 x109 -1 x110 -1 x111 >= -10;
+1 x94 +1 x95 +1 x96 +1 x97 +1 x98 +1 x99 +1 x100 +1 x101 +1 x102 +1 x103 +1 x104 +1 x105 +1 x106 +1 x107 +1 x108 +1 x109 +1 x110 +1 x111 +1 x112 >= 9;
-1 x94 -1 x95 -1 x96 -1 x97 -1 x98 -1 x99 -1 x100 -1 x101 -1 x102 -1 x103 -1 x104 -1 x105 -1 x106 -1 x107 -1 x108 -1 x109 -1 x110 -1 x111 -1 x112 >= -10;
+1 x95 +1 x96 +1 x97 +1 x98 +1 x99 +1 x100 +1 x101 +1 x102 +1 x103 +1 x104 +1 x105 +1 x106 +1 x107 +1 x108 +1 x109 +1 x110 +1 x111 +1 x112 +1 x113 >= 9;
-1 x95 -1 x96 -1 x97 -1 x98 -1 x99 -1 x100 -1 x101 -1 x102 -1 x103 -1 x104 -1 x105 -1 x106 -1 x107 -1 x108 -1 x109 -1 x110 -1 x111 -1 x112 -1 x113 >= -10;
+1 x96 +1 x97 +1 x98 +1 x99 +1 x100 +1 x101 +1 x102 +1 x103 +1 x104 +1 x105 +1 x106 +1 x107 +1 x108 +1 x109 +1 x110 +1 x111 +1 x112 +1 x113 +1 x114 >= 9;
-1 x96 -1 x97 -1 x98 -1 x99 -1 x100 -1 x101 -1 x102 -1 x103 -1 x104 -1 x105 -1 x106 -1 x107 -1 x108 -1 x109 -1 x110 -1 x111 -1 x112 -1 x113 -1 x114 >= -10;
+1 x97 +1 x98 +1 x99 +1 x100 +1 x101 +1 x102 +1 x103 +1 x104 +1 x105 +1 x106 +1 x107 +1 x108 +1 x109 +1 x110 +1 x111 +1 x112 +1 x113 +1 x114 +1 x115 >= 9;
-1 x97 -1 x98 -1 x99 -1 x100 -1 x101 -1 x102 -1 x103 -1 x104 -1 x105 -1 x106 -1 x107 -1 x108 -1 x109 -1 x110 -1 x111 -1 x112 -1 x113 -1 x114 -1 x115 >= -10;
+1 x98 +1 x99 +1 x100 +1 x101 +1 x102 +1 x103 +1 x104 +1 x105 +1 x106 +1 x107 +1 x108 +1 x109 +1 x110 +1 x111 +1 x112 +1 x113 +1 x114 +1 x115 +1 x116 >= 9;
-1 x98 -1 x99 -1 x100 -1 x101 -1 x102 -1 x103 -1 x104 -1 x105 -1 x106 -1 x107 -1 x108 -1 x109 -1 x110 -1 x111 -1 x112 -1 x113 -1 x114 -1 x115 -1 x116 >= -10;
+1 x99 +1 x100 +1 x101 +1 x102 +1 x103 +1 x104 +1 x105 +1 x106 +1 x107 +1 x108 +1 x109 +1 x110 +1 x111 +1 x112 +1 x113 +1 x114 +1 x115 +1 x116 +1 x117 >= 9;
-1 x99 -1 x100 -1 x101 -1 x102 -1 x103 -1 x104 -1 x105 -1 x106 -1 x107 -1 x108 -1 x109 -1 x110 -1 x111 -1 x112 -1 x113 -1 x114 -1 x115 -1 x116 -1 x117 >= -10;
+1 x100 +1 x101 +1 x102 +1 x103 +1 x104 +1 x105 +1 x106 +1 x107 +1 x108 +1 x109 +1 x110 +1 x111 +1 x112 +1 x113 +1 x114 +1 x115 +1 x116 +1 x117 +1 x118 >= 9;
-1 x100 -1 x101 -1 x102 -1 x103 -1 x104 -1 x105 -1 x106 -1 x107 -1 x108 -1 x109 -1 x110 -1 x111 -1 x112 -1 x113 -1 x114 -1 x115 -1 x116 -1 x117 -1 x118 >= -10;
+1 x101 +1 x102 +1 x103 +1 x104 +1 x105 +1 x106 +1 x107 +1 x108 +1 x109 +1 x110 +1 x111 +1 x112 +1 x113 +1 x114 +1 x115 +1 x116 +1 x117 +1 x118 +1 x119 >= 9;
-1 x101 -1 x102 -1 x103 -1 x104 -1 x105 -1 x106 -1 x107 -1 x108 -1 x109 -1 x110 -1 x111 -1 x112 -1 x113 -1 x114 -1 x115 -1 x116 -1 x117 -1 x118 -1 x119 >= -10;
+1 x102 +1 x103 +1 x104 +1 x105 +1 x106 +1 x107 +1 x108 +1 x109 +1 x110 +1 x111 +1 x112 +1 x113 +1 x114 +1 x115 +1 x116 +1 x117 +1 x118 +1 x119 +1 x120 >= 9;
-1 x102 -1 x103 -1 x104 -1 x105 -1 x106 -1 x107 -1 x108 -1 x109 -1 x110 -1 x111 -1 x112 -1 x113 -1 x114 -1 x115 -1 x116 -1 x117 -1 x118 -1 x119 -1 x120 >= -10;
+1 x103 +1 x104 +1 x105 +1 x106 +1 x107 +1 x108 +1 x109 +1 x110 +1 x111 +1 x112 +1 x113 +1 x114 +1 x115 +1 x116 +1 x117 +1 x118 +1 x119 +1 x120 +1 x121 >= 9;
-1 x103 -1 x104 -1 x105 -1 x106 -1 x107 -1 x108 -1 x109 -1 x110 -1 x111 -1 x112 -1 x113 -1 x114 -1 x115 -1 x116 -1 x117 -1 x118 -1 x119 -1 x120 -1 x121 >= -10;
+1 x104 +1 x105 +1 x106 +1 x107 +1 x108 +1 x109 +1 x110 +1 x111 +1 x112 +1 x113 +1 x114 +1 x115 +1 x116 +1 x117 +1 x118 +1 x119 +1 x120 +1 x121 +1 x122 >= 9;
-1 x104 -1 x105 -1 x106 -1 x107 -1 x108 -1 x109 -1 x110 -1 x111 -1 x112 -1 x113 -1 x114 -1 x115 -1 x116 -1 x117 -1 x118 -1 x119 -1 x120 -1 x121 -1 x122 >= -10;
+1 x105 +1 x106 +1 x107 +1 x108 +1 x109 +1 x110 +1 x111 +1 x112 +1 x113 +1 x114 +1 x115 +1 x116 +1 x117 +1 x118 +1 x119 +1 x120 +1 x121 +1 x122 +1 x123 >= 9;
-1 x105 -1 x106 -1 x107 -1 x108 -1 x109 -1 x110 -1 x111 -1 x112 -1 x113 -1 x114 -1 x115 -1 x116 -1 x117 -1 x118 -1 x119 -1 x120 -1 x121 -1 x122 -1 x123 >= -10;
+1 x106 +1 x107 +1 x108 +1 x109 +1 x110 +1 x111 +1 x112 +1 x113 +1 x114 +1 x115 +1 x116 +1 x117 +1 x118 +1 x119 +1 x120 +1 x121 +1 x122 +1 x123 +1 x124 >= 9;
-1 x106 -1 x107 -1 x108 -1 x109 -1 x110 -1 x111 -1 x112 -1 x113 -1 x114 -1 x115 -1 x116 -1 x117 -1 x118 -1 x119 -1 x120 -1 x121 -1 x122 -1 x123 -1 x124 >= -10;
+1 x107 +1 x108 +1 x109 +1 x110 +1 x111 +1 x112 +1 x113 +1 x114 +1 x115 +1 x116 +1 x117 +1 x118 +1 x119 +1 x120 +1 x121 +1 x122 +1 x123 +1 x124 +1 x125 >= 9;
-1 x107 -1 x108 -1 x109 -1 x110 -1 x111 -1 x112 -1 x113 -1 x114 -1 x115 -1 x116 -1 x117 -1 x118 -1 x119 -1 x120 -1 x121 -1 x122 -1 x123 -1 x124 -1 x125 >= -10;
+1 x108 +1 x109 +1 x110 +1 x111 +1 x112 +1 x113 +1 x114 +1 x115 +1 x116 +1 x117 +1 x118 +1 x119 +1 x120 +1 x121 +1 x122 +1 x123 +1 x124 +1 x125 +1 x126 >= 9;
-1 x108 -1 x109 -1 x110 -1 x111 -1 x112 -1 x113 -1 x114 -1 x115 -1 x116 -1 x117 -1 x118 -1 x119 -1 x120 -1 x121 -1 x122 -1 x123 -1 x124 -1 x125 -1 x126 >= -10;
+1 x109 +1 x110 +1 x111 +1 x112 +1 x113 +1 x114 +1 x115 +1 x116 +1 x117 +1 x118 +1 x119 +1 x120 +1 x121 +1 x122 +1 x123 +1 x124 +1 x125 +1 x126 +1 x127 >= 9;
-1 x109 -1 x110 -1 x111 -1 x112 -1 x113 -1 x114 -1 x115 -1 x116 -1 x117 -1 x118 -1 x119 -1 x120 -1 x121 -1 x122 -1 x123 -1 x124 -1 x125 -1 x126 -1 x127 >= -10;
+1 x110 +1 x111 +1 x112 +1 x113 +1 x114 +1 x115 +1 x116 +1 x117 +1 x118 +1 x119 +1 x120 +1 x121 +1 x122 +1 x123 +1 x124 +1 x125 +1 x126 +1 x127 +1 x128 >= 9;
-1 x110 -1 x111 -1 x112 -1 x113 -1 x114 -1 x115 -1 x116 -1 x117 -1 x118 -1 x119 -1 x120 -1 x121 -1 x122 -1 x123 -1 x124 -1 x125 -1 x126 -1 x127 -1 x128 >= -10;
+1 x111 +1 x112 +1 x113 +1 x114 +1 x115 +1 x116 +1 x117 +1 x118 +1 x119 +1 x120 +1 x121 +1 x122 +1 x123 +1 x124 +1 x125 +1 x126 +1 x127 +1 x128 +1 x129 >= 9;
-1 x111 -1 x112 -1 x113 -1 x114 -1 x115 -1 x116 -1 x117 -1 x118 -1 x119 -1 x120 -1 x121 -1 x122 -1 x123 -1 x124 -1 x125 -1 x126 -1 x127 -1 x128 -1 x129 >= -10;
+1 x112 +1 x113 +1 x114 +1 x115 +1 x116 +1 x117 +1 x118 +1 x119 +1 x120 +1 x121 +1 x122 +1 x123 +1 x124 +1 x125 +1 x126 +1 x127 +1 x128 +1 x129 +1 x130 >= 9;
-1 x112 -1 x113 -1 x114 -1 x115 -1 x116 -1 x117 -1 x118 -1 x119 -1 x120 -1 x121 -1 x122 -1 x123 -1 x124 -1 x125 -1 x126 -1 x127 -1 x128 -1 x129 -1 x130 >= -10;
+1 x113 +1 x114 +1 x115 +1 x116 +1 x117 +1 x118 +1 x119 +1 x120 +1 x121 +1 x122 +1 x123 +1 x124 +1 x125 +1 x126 +1 x127 +1 x128 +1 x129 +1 x130 +1 x131 >= 9;
-1 x113 -1 x114 -1 x115 -1 x116 -1 x117 -1 x118 -1 x119 -1 x120 -1 x121 -1 x122 -1 x123 -1 x124 -1 x125 -1 x126 -1 x127 -1 x128 -1 x129 -1 x130 -1 x131 >= -10;
+1 x114 +1 x115 +1 x116 +1 x117 +1 x118 +1 x119 +1 x120 +1 x121 +1 x122 +1 x123 +1 x124 +1 x125 +1 x126 +1 x127 +1 x128 +1 x129 +1 x130 +1 x131 +1 x132 >= 9;
-1 x114 -1 x115 -1 x116 -1 x117 -1 x118 -1 x119 -1 x120 -1 x121 -1 x122 -1 x123 -1 x124 -1 x125 -1 x126 -1 x127 -1 x128 -1 x129 -1 x130 -1 x131 -1 x132 >= -10;
+1 x115 +1 x116 +1 x117 +1 x118 +1 x119 +1 x120 +1 x121 +1 x122 +1 x123 +1 x124 +1 x125 +1 x126 +1 x127 +1 x128 +1 x129 +1 x130 +1 x131 +1 x132 +1 x133 >= 9;
-1 x115 -1 x116 -1 x117 -1 x118 -1 x119 -1 x120 -1 x121 -1 x122 -1 x123 -1 x124 -1 x125 -1 x126 -1 x127 -1 x128 -1 x129 -1 x130 -1 x131 -1 x132 -1 x133 >= -10;
+1 x116 +1 x117 +1 x118 +1 x119 +1 x120 +1 x121 +1 x122 +1 x123 +1 x124 +1 x125 +1 x126 +1 x127 +1 x128 +1 x129 +1 x130 +1 x131 +1 x132 +1 x133 +1 x134 >= 9;
-1 x116 -1 x117 -1 x118 -1 x119 -1 x120 -1 x121 -1 x122 -1 x123 -1 x124 -1 x125 -1 x126 -1 x127 -1 x128 -1 x129 -1 x130 -1 x131 -1 x132 -1 x133 -1 x134 >= -10;
+1 x117 +1 x118 +1 x119 +1 x120 +1 x121 +1 x122 +1 x123 +1 x124 +1 x125 +1 x126 +1 x127 +1 x128 +1 x129 +1 x130 +1 x131 +1 x132 +1 x133 +1 x134 +1 x135 >= 9;
-1 x117 -1 x118 -1 x119 -1 x120 -1 x121 -1 x122 -1 x123 -1 x124 -1 x125 -1 x126 -1 x127 -1 x128 -1 x129 -1 x130 -1 x131 -1 x132 -1 x133 -1 x134 -1 x135 >= -10;
+1 x118 +1 x119 +1 x120 +1 x121 +1 x122 +1 x123 +1 x124 +1 x125 +1 x126 +1 x127 +1 x128 +1 x129 +1 x130 +1 x131 +1 x132 +1 x133 +1 x134 +1 x135 +1 x136 >= 9;
-1 x118 -1 x119 -1 x120 -1 x121 -1 x122 -1 x123 -1 x124 -1 x125 -1 x126 -1 x127 -1 x128 -1 x129 -1 x130 -1 x131 -1 x132 -1 x133 -1 x134 -1 x135 -1 x136 >= -10;
+1 x119 +1 x120 +1 x121 +1 x122 +1 x123 +1 x124 +1 x125 +1 x126 +1 x127 +1 x128 +1 x129 +1 x130 +1 x131 +1 x132 +1 x133 +1 x134 +1 x135 +1 x136 +1 x137 >= 9;
-1 x119 -1 x120 -1 x121 -1 x122 -1 x123 -1 x124 -1 x125 -1 x126 -1 x127 -1 x128 -1 x129 -1 x130 -1 x131 -1 x132 -1 x133 -1 x134 -1 x135 -1 x136 -1 x137 >= -10;
+1 x120 +1 x121 +1 x122 +1 x123 +1 x124 +1 x125 +1 x126 +1 x127 +1 x128 +1 x129 +1 x130 +1 x131 +1 x132 +1 x133 +1 x134 +1 x135 +1 x136 +1 x137 +1 x138 >= 9;
-1 x120 -1 x121 -1 x122 -1 x123 -1 x124 -1 x125 -1 x126 -1 x127 -1 x128 -1 x129 -1 x130 -1 x131 -1 x132 -1 x133 -1 x134 -1 x135 -1 x136 -1 x137 -1 x138 >= -10;
+1 x121 +1 x122 +1 x123 +1 x124 +1 x125 +1 x126 +1 x127 +1 x128 +1 x129 +1 x130 +1 x131 +1 x132 +1 x133 +1 x134 +1 x135 +1 x136 +1 x137 +1 x138 +1 x139 >= 9;
-1 x121 -1 x122 -1 x123 -1 x124 -1 x125 -1 x126 -1 x127 -1 x128 -1 x129 -1 x130 -1 x131 -1 x132 -1 x133 -1 x134 -1 x135 -1 x136 -1 x137 -1 x138 -1 x139 >= -10;
+1 x122 +1 x123 +1 x124 +1 x125 +1 x126 +1 x127 +1 x128 +1 x129 +1 x130 +1 x131 +1 x132 +1 x133 +1 x134 +1 x135 +1 x136 +1 x137 +1 x138 +1 x139 +1 x140 >= 9;
-1 x122 -1 x123 -1 x124 -1 x125 -1 x126 -1 x127 -1 x128 -1 x129 -1 x130 -1 x131 -1 x132 -1 x133 -1 x134 -1 x135 -1 x136 -1 x137 -1 x138 -1 x139 -1 x140 >= -10;
+1 x123 +1 x124 +1 x125 +1 x126 +1 x127 +1 x128 +1 x129 +1 x130 +1 x131 +1 x132 +1 x133 +1 x134 +1 x135 +1 x136 +1 x137 +1 x138 +1 x139 +1 x140 +1 x141 >= 9;
-1 x123 -1 x124 -1 x125 -1 x126 -1 x127 -1 x128 -1 x129 -1 x130 -1 x131 -1 x132 -1 x133 -1 x134 -1 x135 -1 x136 -1 x137 -1 x138 -1 x139 -1 x140 -1 x141 >= -10;
+1 x124 +1 x125 +1 x126 +1 x127 +1 x128 +1 x129 +1 x130 +1 x131 +1 x132 +1 x133 +1 x134 +1 x135 +1 x136 +1 x137 +1 x138 +1 x139 +1 x140 +1 x141 +1 x142 >= 9;
-1 x124 -1 x125 -1 x126 -1 x127 -1 x128 -1 x129 -1 x130 -1 x131 -1 x132 -1 x133 -1 x134 -1 x135 -1 x136 -1 x137 -1 x138 -1 x139 -1 x140 -1 x141 -1 x142 >= -10;
+1 x125 +1 x126 +1 x127 +1 x128 +1 x129 +1 x130 +1 x131 +1 x132 +1 x133 +1 x134 +1 x135 +1 x136 +1 x137 +1 x138 +1 x139 +1 x140 +1 x141 +1 x142 +1 x143 >= 9;
-1 x125 -1 x126 -1 x127 -1 x128 -1 x129 -1 x130 -1 x131 -1 x132 -1 x133 -1 x134 -1 x135 -1 x136 -1 x137 -1 x138 -1 x139 -1 x140 -1 x141 -1 x142 -1 x143 >= -10;
+1 x126 +1 x127 +1 x128 +1 x129 +1 x130 +1 x131 +1 x132 +1 x133 +1 x134 +1 x135 +1 x136 +1 x137 +1 x138 +1 x139 +1 x140 +1 x141 +1 x142 +1 x143 +1 x144 >= 9;
-1 x126 -1 x127 -1 x128 -1 x129 -1 x130 -1 x131 -1 x132 -1 x133 -1 x134 -1 x135 -1 x136 -1 x137 -1 x138 -1 x139 -1 x140 -1 x141 -1 x142 -1 x143 -1 x144 >= -10;
+1 x127 +1 x128 +1 x129 +1 x130 +1 x131 +1 x132 +1 x133 +1 x134 +1 x135 +1 x136 +1 x137 +1 x138 +1 x139 +1 x140 +1 x141 +1 x142 +1 x143 +1 x144 +1 x145 >= 9;
-1 x127 -1 x128 -1 x129 -1 x130 -1 x131 -1 x132 -1 x133 -1 x134 -1 x135 -1 x136 -1 x137 -1 x138 -1 x139 -1 x140 -1 x141 -1 x142 -1 x143 -1 x144 -1 x145 >= -10;
+1 x128 +1 x129 +1 x130 +1 x131 +1 x132 +1 x133 +1 x134 +1 x135 +1 x136 +1 x137 +1 x138 +1 x139 +1 x140 +1 x141 +1 x142 +1 x143 +1 x144 +1 x145 +1 x146 >= 9;
-1 x128 -1 x129 -1 x130 -1 x131 -1 x132 -1 x133 -1 x134 -1 x135 -1 x136 -1 x137 -1 x138 -1 x139 -1 x140 -1 x141 -1 x142 -1 x143 -1 x144 -1 x145 -1 x146 >= -10;
+1 x129 +1 x130 +1 x131 +1 x132 +1 x133 +1 x134 +1 x135 +1 x136 +1 x137 +1 x138 +1 x139 +1 x140 +1 x141 +1 x142 +1 x143 +1 x144 +1 x145 +1 x146 +1 x147 >= 9;
-1 x129 -1 x130 -1 x131 -1 x132 -1 x133 -1 x134 -1 x135 -1 x136 -1 x137 -1 x138 -1 x139 -1 x140 -1 x141 -1 x142 -1 x143 -1 x144 -1 x145 -1 x146 -1 x147 >= -10;
+1 x130 +1 x131 +1 x132 +1 x133 +1 x134 +1 x135 +1 x136 +1 x137 +1 x138 +1 x139 +1 x140 +1 x141 +1 x142 +1 x143 +1 x144 +1 x145 +1 x146 +1 x147 +1 x148 >= 9;
-1 x130 -1 x131 -1 x132 -1 x133 -1 x134 -1 x135 -1 x136 -1 x137 -1 x138 -1 x139 -1 x140 -1 x141 -1 x142 -1 x143 -1 x144 -1 x145 -1 x146 -1 x147 -1 x148 >= -10;
+1 x131 +1 x132 +1 x133 +1 x134 +1 x135 +1 x136 +1 x137 +1 x138 +1 x139 +1 x140 +1 x141 +1 x142 +1 x143 +1 x144 +1 x145 +1 x146 +1 x147 +1 x148 +1 x149 >= 9;
-1 x131 -1 x132 -1 x133 -1 x134 -1 x135 -1 x136 -1 x137 -1 x138 -1 x139 -1 x140 -1 x141 -1 x142 -1 x143 -1 x144 -1 x145 -1 x146 -1 x147 -1 x148 -1 x149 >= -10;
+1 x132 +1 x133 +1 x134 +1 x135 +1 x136 +1 x137 +1 x138 +1 x139 +1 x140 +1 x141 +1 x142 +1 x143 +1 x144 +1 x145 +1 x146 +1 x147 +1 x148 +1 x149 +1 x150 >= 9;
-1 x132 -1 x133 -1 x134 -1 x135 -1 x136 -1 x137 -1 x138 -1 x139 -1 x140 -1 x141 -1 x142 -1 x143 -1 x144 -1 x145 -1 x146 -1 x147 -1 x148 -1 x149 -1 x150 >= -10;
+1 x133 +1 x134 +1 x135 +1 x136 +1 x137 +1 x138 +1 x139 +1 x140 +1 x141 +1 x142 +1 x143 +1 x144 +1 x145 +1 x146 +1 x147 +1 x148 +1 x149 +1 x150 +1 x151 >= 9;
-1 x133 -1 x134 -1 x135 -1 x136 -1 x137 -1 x138 -1 x139 -1 x140 -1 x141 -1 x142 -1 x143 -1 x144 -1 x145 -1 x146 -1 x147 -1 x148 -1 x149 -1 x150 -1 x151 >= -10;
+1 x134 +1 x135 +1 x136 +1 x137 +1 x138 +1 x139 +1 x140 +1 x141 +1 x142 +1 x143 +1 x144 +1 x145 +1 x146 +1 x147 +1 x148 +1 x149 +1 x150 +1 x151 +1 x152 >= 9;
-1 x134 -1 x135 -1 x136 -1 x137 -1 x138 -1 x139 -1 x140 -1 x141 -1 x142 -1 x143 -1 x144 -1 x145 -1 x146 -1 x147 -1 x148 -1 x149 -1 x150 -1 x151 -1 x152 >= -10;
+1 x135 +1 x136 +1 x137 +1 x138 +1 x139 +1 x140 +1 x141 +1 x142 +1 x143 +1 x144 +1 x145 +1 x146 +1 x147 +1 x148 +1 x149 +1 x150 +1 x151 +1 x152 +1 x153 >= 9;
-1 x135 -1 x136 -1 x137 -1 x138 -1 x139 -1 x140 -1 x141 -1 x142 -1 x143 -1 x144 -1 x145 -1 x146 -1 x147 -1 x148 -1 x149 -1 x150 -1 x151 -1 x152 -1 x153 >= -10;
+1 x136 +1 x137 +1 x138 +1 x139 +1 x140 +1 x141 +1 x142 +1 x143 +1 x144 +1 x145 +1 x146 +1 x147 +1 x148 +1 x149 +1 x150 +1 x151 +1 x152 +1 x153 +1 x154 >= 9;
-1 x136 -1 x137 -1 x138 -1 x139 -1 x140 -1 x141 -1 x142 -1 x143 -1 x144 -1 x145 -1 x146 -1 x147 -1 x148 -1 x149 -1 x150 -1 x151 -1 x152 -1 x153 -1 x154 >= -10;
+1 x137 +1 x138 +1 x139 +1 x140 +1 x141 +1 x142 +1 x143 +1 x144 +1 x145 +1 x146 +1 x147 +1 x148 +1 x149 +1 x150 +1 x151 +1 x152 +1 x153 +1 x154 +1 x155 >= 9;
-1 x137 -1 x138 -1 x139 -1 x140 -1 x141 -1 x142 -1 x143 -1 x144 -1 x145 -1 x146 -1 x147 -1 x148 -1 x149 -1 x150 -1 x151 -1 x152 -1 x153 -1 x154 -1 x155 >= -10;
+1 x138 +1 x139 +1 x140 +1 x141 +1 x142 +1 x143 +1 x144 +1 x145 +1 x146 +1 x147 +1 x148 +1 x149 +1 x150 +1 x151 +1 x152 +1 x153 +1 x154 +1 x155 +1 x156 >= 9;
-1 x138 -1 x139 -1 x140 -1 x141 -1 x142 -1 x143 -1 x144 -1 x145 -1 x146 -1 x147 -1 x148 -1 x149 -1 x150 -1 x151 -1 x152 -1 x153 -1 x154 -1 x155 -1 x156 >= -10;
+1 x139 +1 x140 +1 x141 +1 x142 +1 x143 +1 x144 +1 x145 +1 x146 +1 x147 +1 x148 +1 x149 +1 x150 +1 x151 +1 x152 +1 x153 +1 x154 +1 x155 +1 x156 +1 x157 >= 9;
-1 x139 -1 x140 -1 x141 -1 x142 -1 x143 -1 x144 -1 x145 -1 x146 -1 x147 -1 x148 -1 x149 -1 x150 -1 x151 -1 x152 -1 x153 -1 x154 -1 x155 -1 x156 -1 x157 >= -10;
+1 x140 +1 x141 +1 x142 +1 x143 +1 x144 +1 x145 +1 x146 +1 x147 +1 x148 +1 x149 +1 x150 +1 x151 +1 x152 +1 x153 +1 x154 +1 x155 +1 x156 +1 x157 +1 x158 >= 9;
-1 x140 -1 x141 -1 x142 -1 x143 -1 x144 -1 x145 -1 x146 -1 x147 -1 x148 -1 x149 -1 x150 -1 x151 -1 x152 -1 x153 -1 x154 -1 x155 -1 x156 -1 x157 -1 x158 >= -10;
+1 x141 +1 x142 +1 x143 +1 x144 +1 x145 +1 x146 +1 x147 +1 x148 +1 x149 +1 x150 +1 x151 +1 x152 +1 x153 +1 x154 +1 x155 +1 x156 +1 x157 +1 x158 +1 x159 >= 9;
-1 x141 -1 x142 -1 x143 -1 x144 -1 x145 -1 x146 -1 x147 -1 x148 -1 x149 -1 x150 -1 x151 -1 x152 -1 x153 -1 x154 -1 x155 -1 x156 -1 x157 -1 x158 -1 x159 >= -10;
+1 x142 +1 x143 +1 x144 +1 x145 +1 x146 +1 x147 +1 x148 +1 x149 +1 x150 +1 x151 +1 x152 +1 x153 +1 x154 +1 x155 +1 x156 +1 x157 +1 x158 +1 x159 +1 x160 >= 9;
-1 x142 -1 x143 -1 x144 -1 x145 -1 x146 -1 x147 -1 x148 -1 x149 -1 x150 -1 x151 -1 x152 -1 x153 -1 x154 -1 x155 -1 x156 -1 x157 -1 x158 -1 x159 -1 x160 >= -10;
+1 x143 +1 x144 +1 x145 +1 x146 +1 x147 +1 x148 +1 x149 +1 x150 +1 x151 +1 x152 +1 x153 +1 x154 +1 x155 +1 x156 +1 x157 +1 x158 +1 x159 +1 x160 +1 x161 >= 9;
-1 x143 -1 x144 -1 x145 -1 x146 -1 x147 -1 x148 -1 x149 -1 x150 -1 x151 -1 x152 -1 x153 -1 x154 -1 x155 -1 x156 -1 x157 -1 x158 -1 x159 -1 x160 -1 x161 >= -10;
+1 x144 +1 x145 +1 x146 +1 x147 +1 x148 +1 x149 +1 x150 +1 x151 +1 x152 +1 x153 +1 x154 +1 x155 +1 x156 +1 x157 +1 x158 +1 x159 +1 x160 +1 x161 +1 x162 >= 9;
-1 x144 -1 x145 -1 x146 -1 x147 -1 x148 -1 x149 -1 x150 -1 x151 -1 x152 -1 x153 -1 x154 -1 x155 -1 x156 -1 x157 -1 x158 -1 x159 -1 x160 -1 x161 -1 x162 >= -10;
+1 x145 +1 x146 +1 x147 +1 x148 +1 x149 +1 x150 +1 x151 +1 x152 +1 x153 +1 x154 +1 x155 +1 x156 +1 x157 +1 x158 +1 x159 +1 x160 +1 x161 +1 x162 +1 x163 >= 9;
-1 x145 -1 x146 -1 x147 -1 x148 -1 x149 -1 x150 -1 x151 -1 x152 -1 x153 -1 x154 -1 x155 -1 x156 -1 x157 -1 x158 -1 x159 -1 x160 -1 x161 -1 x162 -1 x163 >= -10;
+1 x146 +1 x147 +1 x148 +1 x149 +1 x150 +1 x151 +1 x152 +1 x153 +1 x154 +1 x155 +1 x156 +1 x157 +1 x158 +1 x159 +1 x160 +1 x161 +1 x162 +1 x163 +1 x164 >= 9;
-1 x146 -1 x147 -1 x148 -1 x149 -1 x150 -1 x151 -1 x152 -1 x153 -1 x154 -1 x155 -1 x156 -1 x157 -1 x158 -1 x159 -1 x160 -1 x161 -1 x162 -1 x163 -1 x164 >= -10;
+1 x147 +1 x148 +1 x149 +1 x150 +1 x151 +1 x152 +1 x153 +1 x154 +1 x155 +1 x156 +1 x157 +1 x158 +1 x159 +1 x160 +1 x161 +1 x162 +1 x163 +1 x164 +1 x165 >= 9;
-1 x147 -1 x148 -1 x149 -1 x150 -1 x151 -1 x152 -1 x153 -1 x154 -1 x155 -1 x156 -1 x157 -1 x158 -1 x159 -1 x160 -1 x161 -1 x162 -1 x163 -1 x164 -1 x165 >= -10;
+1 x148 +1 x149 +1 x150 +1 x151 +1 x152 +1 x153 +1 x154 +1 x155 +1 x156 +1 x157 +1 x158 +1 x159 +1 x160 +1 x161 +1 x162 +1 x163 +1 x164 +1 x165 +1 x166 >= 9;
-1 x148 -1 x149 -1 x150 -1 x151 -1 x152 -1 x153 -1 x154 -1 x155 -1 x156 -1 x157 -1 x158 -1 x159 -1 x160 -1 x161 -1 x162 -1 x163 -1 x164 -1 x165 -1 x166 >= -10;
+1 x149 +1 x150 +1 x151 +1 x152 +1 x153 +1 x154 +1 x155 +1 x156 +1 x157 +1 x158 +1 x159 +1 x160 +1 x161 +1 x162 +1 x163 +1 x164 +1 x165 +1 x166 +1 x167 >= 9;
-1 x149 -1 x150 -1 x151 -1 x152 -1 x153 -1 x154 -1 x155 -1 x156 -1 x157 -1 x158 -1 x159 -1 x160 -1 x161 -1 x162 -1 x163 -1 x164 -1 x165 -1 x166 -1 x167 >= -10;
+1 x150 +1 x151 +1 x152 +1 x153 +1 x154 +1 x155 +1 x156 +1 x157 +1 x158 +1 x159 +1 x160 +1 x161 +1 x162 +1 x163 +1 x164 +1 x165 +1 x166 +1 x167 +1 x168 >= 9;
-1 x150 -1 x151 -1 x152 -1 x153 -1 x154 -1 x155 -1 x156 -1 x157 -1 x158 -1 x159 -1 x160 -1 x161 -1 x162 -1 x163 -1 x164 -1 x165 -1 x166 -1 x167 -1 x168 >= -10;
+1 x151 +1 x152 +1 x153 +1 x154 +1 x155 +1 x156 +1 x157 +1 x158 +1 x159 +1 x160 +1 x161 +1 x162 +1 x163 +1 x164 +1 x165 +1 x166 +1 x167 +1 x168 +1 x169 >= 9;
-1 x151 -1 x152 -1 x153 -1 x154 -1 x155 -1 x156 -1 x157 -1 x158 -1 x159 -1 x160 -1 x161 -1 x162 -1 x163 -1 x164 -1 x165 -1 x166 -1 x167 -1 x168 -1 x169 >= -10;
+1 x152 +1 x153 +1 x154 +1 x155 +1 x156 +1 x157 +1 x158 +1 x159 +1 x160 +1 x161 +1 x162 +1 x163 +1 x164 +1 x165 +1 x166 +1 x167 +1 x168 +1 x169 +1 x170 >= 9;
-1 x152 -1 x153 -1 x154 -1 x155 -1 x156 -1 x157 -1 x158 -1 x159 -1 x160 -1 x161 -1 x162 -1 x163 -1 x164 -1 x165 -1 x166 -1 x167 -1 x168 -1 x169 -1 x170 >= -10;
+1 x153 +1 x154 +1 x155 +1 x156 +1 x157 +1 x158 +1 x159 +1 x160 +1 x161 +1 x162 +1 x163 +1 x164 +1 x165 +1 x166 +1 x167 +1 x168 +1 x169 +1 x170 +1 x171 >= 9;
-1 x153 -1 x154 -1 x155 -1 x156 -1 x157 -1 x158 -1 x159 -1 x160 -1 x161 -1 x162 -1 x163 -1 x164 -1 x165 -1 x166 -1 x167 -1 x168 -1 x169 -1 x170 -1 x171 >= -10;
+1 x154 +1 x155 +1 x156 +1 x157 +1 x158 +1 x159 +1 x160 +1 x161 +1 x162 +1 x163 +1 x164 +1 x165 +1 x166 +1 x167 +1 x168 +1 x169 +1 x170 +1 x171 +1 x172 >= 9;
-1 x154 -1 x155 -1 x156 -1 x157 -1 x158 -1 x159 -1 x160 -1 x161 -1 x162 -1 x163 -1 x164 -1 x165 -1 x166 -1 x167 -1 x168 -1 x169 -1 x170 -1 x171 -1 x172 >= -10;
+1 x155 +1 x156 +1 x157 +1 x158 +1 x159 +1 x160 +1 x161 +1 x162 +1 x163 +1 x164 +1 x165 +1 x166 +1 x167 +1 x168 +1 x169 +1 x170 +1 x171 +1 x172 +1 x173 >= 9;
-1 x155 -1 x156 -1 x157 -1 x158 -1 x159 -1 x160 -1 x161 -1 x162 -1 x163 -1 x164 -1 x165 -1 x166 -1 x167 -1 x168 -1 x169 -1 x170 -1 x171 -1 x172 -1 x173 >= -10;
+1 x156 +1 x157 +1 x158 +1 x159 +1 x160 +1 x161 +1 x162 +1 x163 +1 x164 +1 x165 +1 x166 +1 x167 +1 x168 +1 x169 +1 x170 +1 x171 +1 x172 +1 x173 +1 x174 >= 9;
-1 x156 -1 x157 -1 x158 -1 x159 -1 x160 -1 x161 -1 x162 -1 x163 -1 x164 -1 x165 -1 x166 -1 x167 -1 x168 -1 x169 -1 x170 -1 x171 -1 x172 -1 x173 -1 x174 >= -10;
+1 x157 +1 x158 +1 x159 +1 x160 +1 x161 +1 x162 +1 x163 +1 x164 +1 x165 +1 x166 +1 x167 +1 x168 +1 x169 +1 x170 +1 x171 +1 x172 +1 x173 +1 x174 +1 x175 >= 9;
-1 x157 -1 x158 -1 x159 -1 x160 -1 x161 -1 x162 -1 x163 -1 x164 -1 x165 -1 x166 -1 x167 -1 x168 -1 x169 -1 x170 -1 x171 -1 x172 -1 x173 -1 x174 -1 x175 >= -10;
+1 x158 +1 x159 +1 x160 +1 x161 +1 x162 +1 x163 +1 x164 +1 x165 +1 x166 +1 x167 +1 x168 +1 x169 +1 x170 +1 x171 +1 x172 +1 x173 +1 x174 +1 x175 +1 x176 >= 9;
-1 x158 -1 x159 -1 x160 -1 x161 -1 x162 -1 x163 -1 x164 -1 x165 -1 x166 -1 x167 -1 x168 -1 x169 -1 x170 -1 x171 -1 x172 -1 x173 -1 x174 -1 x175 -1 x176 >= -10;
+1 x159 +1 x160 +1 x161 +1 x162 +1 x163 +1 x164 +1 x165 +1 x166 +1 x167 +1 x168 +1 x169 +1 x170 +1 x171 +1 x172 +1 x173 +1 x174 +1 x175 +1 x176 +1 x177 >= 9;
-1 x159 -1 x160 -1 x161 -1 x162 -1 x163 -1 x164 -1 x165 -1 x166 -1 x167 -1 x168 -1 x169 -1 x170 -1 x171 -1 x172 -1 x173 -1 x174 -1 x175 -1 x176 -1 x177 >= -10;
+1 x160 +1 x161 +1 x162 +1 x163 +1 x164 +1 x165 +1 x166 +1 x167 +1 x168 +1 x169 +1 x170 +1 x171 +1 x172 +1 x173 +1 x174 +1 x175 +1 x176 +1 x177 +1 x178 >= 9;
-1 x160 -1 x161 -1 x162 -1 x163 -1 x164 -1 x165 -1 x166 -1 x167 -1 x168 -1 x169 -1 x170 -1 x171 -1 x172 -1 x173 -1 x174 -1 x175 -1 x176 -1 x177 -1 x178 >= -10;
+1 x161 +1 x162 +1 x163 +1 x164 +1 x165 +1 x166 +1 x167 +1 x168 +1 x169 +1 x170 +1 x171 +1 x172 +1 x173 +1 x174 +1 x175 +1 x176 +1 x177 +1 x178 +1 x179 >= 9;
-1 x161 -1 x162 -1 x163 -1 x164 -1 x165 -1 x166 -1 x167 -1 x168 -1 x169 -1 x170 -1 x171 -1 x172 -1 x173 -1 x174 -1 x175 -1 x176 -1 x177 -1 x178 -1 x179 >= -10;
+1 x162 +1 x163 +1 x164 +1 x165 +1 x166 +1 x167 +1 x168 +1 x169 +1 x170 +1 x171 +1 x172 +1 x173 +1 x174 +1 x175 +1 x176 +1 x177 +1 x178 +1 x179 +1 x180 >= 9;
-1 x162 -1 x163 -1 x164 -1 x165 -1 x166 -1 x167 -1 x168 -1 x169 -1 x170 -1 x171 -1 x172 -1 x173 -1 x174 -1 x175 -1 x176 -1 x177 -1 x178 -1 x179 -1 x180 >= -10;
+1 x163 +1 x164 +1 x165 +1 x166 +1 x167 +1 x168 +1 x169 +1 x170 +1 x171 +1 x172 +1 x173 +1 x174 +1 x175 +1 x176 +1 x177 +1 x178 +1 x179 +1 x180 +1 x181 >= 9;
-1 x163 -1 x164 -1 x165 -1 x166 -1 x167 -1 x168 -1 x169 -1 x170 -1 x171 -1 x172 -1 x173 -1 x174 -1 x175 -1 x176 -1 x177 -1 x178 -1 x179 -1 x180 -1 x181 >= -10;
+1 x164 +1 x165 +1 x166 +1 x167 +1 x168 +1 x169 +1 x170 +1 x171 +1 x172 +1 x173 +1 x174 +1 x175 +1 x176 +1 x177 +1 x178 +1 x179 +1 x180 +1 x181 +1 x182 >= 9;
-1 x164 -1 x165 -1 x166 -1 x167 -1 x168 -1 x169 -1 x170 -1 x171 -1 x172 -1 x173 -1 x174 -1 x175 -1 x176 -1 x177 -1 x178 -1 x179 -1 x180 -1 x181 -1 x182 >= -10;
+1 x165 +1 x166 +1 x167 +1 x168 +1 x169 +1 x170 +1 x171 +1 x172 +1 x173 +1 x174 +1 x175 +1 x176 +1 x177 +1 x178 +1 x179 +1 x180 +1 x181 +1 x182 +1 x183 >= 9;
-1 x165 -1 x166 -1 x167 -1 x168 -1 x169 -1 x170 -1 x171 -1 x172 -1 x173 -1 x174 -1 x175 -1 x176 -1 x177 -1 x178 -1 x179 -1 x180 -1 x181 -1 x182 -1 x183 >= -10;
+1 x166 +1 x167 +1 x168 +1 x169 +1 x170 +1 x171 +1 x172 +1 x173 +1 x174 +1 x175 +1 x176 +1 x177 +1 x178 +1 x179 +1 x180 +1 x181 +1 x182 +1 x183 +1 x184 >= 9;
-1 x166 -1 x167 -1 x168 -1 x169 -1 x170 -1 x171 -1 x172 -1 x173 -1 x174 -1 x175 -1 x176 -1 x177 -1 x178 -1 x179 -1 x180 -1 x181 -1 x182 -1 x183 -1 x184 >= -10;
+1 x167 +1 x168 +1 x169 +1 x170 +1 x171 +1 x172 +1 x173 +1 x174 +1 x175 +1 x176 +1 x177 +1 x178 +1 x179 +1 x180 +1 x181 +1 x182 +1 x183 +1 x184 +1 x185 >= 9;
-1 x167 -1 x168 -1 x169 -1 x170 -1 x171 -1 x172 -1 x173 -1 x174 -1 x175 -1 x176 -1 x177 -1 x178 -1 x179 -1 x180 -1 x181 -1 x182 -1 x183 -1 x184 -1 x185 >= -10;
+1 x168 +1 x169 +1 x170 +1 x171 +1 x172 +1 x173 +1 x174 +1 x175 +1 x176 +1 x177 +1 x178 +1 x179 +1 x180 +1 x181 +1 x182 +1 x183 +1 x184 +1 x185 +1 x186 >= 9;
-1 x168 -1 x169 -1 x170 -1 x171 -1 x172 -1 x173 -1 x174 -1 x175 -1 x176 -1 x177 -1 x178 -1 x179 -1 x180 -1 x181 -1 x182 -1 x183 -1 x184 -1 x185 -1 x186 >= -10;
+1 x169 +1 x170 +1 x171 +1 x172 +1 x173 +1 x174 +1 x175 +1 x176 +1 x177 +1 x178 +1 x179 +1 x180 +1 x181 +1 x182 +1 x183 +1 x184 +1 x185 +1 x186 +1 x187 >= 9;
-1 x169 -1 x170 -1 x171 -1 x172 -1 x173 -1 x174 -1 x175 -1 x176 -1 x177 -1 x178 -1 x179 -1 x180 -1 x181 -1 x182 -1 x183 -1 x184 -1 x185 -1 x186 -1 x187 >= -10;
+1 x170 +1 x171 +1 x172 +1 x173 +1 x174 +1 x175 +1 x176 +1 x177 +1 x178 +1 x179 +1 x180 +1 x181 +1 x182 +1 x183 +1 x184 +1 x185 +1 x186 +1 x187 +1 x188 >= 9;
-1 x170 -1 x171 -1 x172 -1 x173 -1 x174 -1 x175 -1 x176 -1 x177 -1 x178 -1 x179 -1 x180 -1 x181 -1 x182 -1 x183 -1 x184 -1 x185 -1 x186 -1 x187 -1 x188 >= -10;
+1 x171 +1 x172 +1 x173 +1 x174 +1 x175 +1 x176 +1 x177 +1 x178 +1 x179 +1 x180 +1 x181 +1 x182 +1 x183 +1 x184 +1 x185 +1 x186 +1 x187 +1 x188 +1 x189 >= 9;
-1 x171 -1 x172 -1 x173 -1 x174 -1 x175 -1 x176 -1 x177 -1 x178 -1 x179 -1 x180 -1 x181 -1 x182 -1 x183 -1 x184 -1 x185 -1 x186 -1 x187 -1 x188 -1 x189 >= -10;
+1 x172 +1 x173 +1 x174 +1 x175 +1 x176 +1 x177 +1 x178 +1 x179 +1 x180 +1 x181 +1 x182 +1 x183 +1 x184 +1 x185 +1 x186 +1 x187 +1 x188 +1 x189 +1 x190 >= 9;
-1 x172 -1 x173 -1 x174 -1 x175 -1 x176 -1 x177 -1 x178 -1 x179 -1 x180 -1 x181 -1 x182 -1 x183 -1 x184 -1 x185 -1 x186 -1 x187 -1 x188 -1 x189 -1 x190 >= -10;
+1 x173 +1 x174 +1 x175 +1 x176 +1 x177 +1 x178 +1 x179 +1 x180 +1 x181 +1 x182 +1 x183 +1 x184 +1 x185 +1 x186 +1 x187 +1 x188 +1 x189 +1 x190 +1 x191 >= 9;
-1 x173 -1 x174 -1 x175 -1 x176 -1 x177 -1 x178 -1 x179 -1 x180 -1 x181 -1 x182 -1 x183 -1 x184 -1 x185 -1 x186 -1 x187 -1 x188 -1 x189 -1 x190 -1 x191 >= -10;
+1 x174 +1 x175 +1 x176 +1 x177 +1 x178 +1 x179 +1 x180 +1 x181 +1 x182 +1 x183 +1 x184 +1 x185 +1 x186 +1 x187 +1 x188 +1 x189 +1 x190 +1 x191 +1 x192 >= 9;
-1 x174 -1 x175 -1 x176 -1 x177 -1 x178 -1 x179 -1 x180 -1 x181 -1 x182 -1 x183 -1 x184 -1 x185 -1 x186 -1 x187 -1 x188 -1 x189 -1 x190 -1 x191 -1 x192 >= -10;
+1 x175 +1 x176 +1 x177 +1 x178 +1 x179 +1 x180 +1 x181 +1 x182 +1 x183 +1 x184 +1 x185 +1 x186 +1 x187 +1 x188 +1 x189 +1 x190 +1 x191 +1 x192 +1 x193 >= 9;
-1 x175 -1 x176 -1 x177 -1 x178 -1 x179 -1 x180 -1 x181 -1 x182 -1 x183 -1 x184 -1 x185 -1 x186 -1 x187 -1 x188 -1 x189 -1 x190 -1 x191 -1 x192 -1 x193 >= -10;
+1 x176 +1 x177 +1 x178 +1 x179 +1 x180 +1 x181 +1 x182 +1 x183 +1 x184 +1 x185 +1 x186 +1 x187 +1 x188 +1 x189 +1 x190 +1 x191 +1 x192 +1 x193 +1 x194 >= 9;
-1 x176 -1 x177 -1 x178 -1 x179 -1 x180 -1 x181 -1 x182 -1 x183 -1 x184 -1 x185 -1 x186 -1 x187 -1 x188 -1 x189 -1 x190 -1 x191 -1 x192 -1 x193 -1 x194 >= -10;
+1 x177 +1 x178 +1 x179 +1 x180 +1 x181 +1 x182 +1 x183 +1 x184 +1 x185 +1 x186 +1 x187 +1 x188 +1 x189 +1 x190 +1 x191 +1 x192 +1 x193 +1 x194 +1 x195 >= 9;
-1 x177 -1 x178 -1 x179 -1 x180 -1 x181 -1 x182 -1 x183 -1 x184 -1 x185 -1 x186 -1 x187 -1 x188 -1 x189 -1 x190 -1 x191 -1 x192 -1 x193 -1 x194 -1 x195 >= -10;
+1 x178 +1 x179 +1 x180 +1 x181 +1 x182 +1 x183 +1 x184 +1 x185 +1 x186 +1 x187 +1 x188 +1 x189 +1 x190 +1 x191 +1 x192 +1 x193 +1 x194 +1 x195 +1 x196 >= 9;
-1 x178 -1 x179 -1 x180 -1 x181 -1 x182 -1 x183 -1 x184 -1 x185 -1 x186 -1 x187 -1 x188 -1 x189 -1 x190 -1 x191 -1 x192 -1 x193 -1 x194 -1 x195 -1 x196 >= -10;
+1 x179 +1 x180 +1 x181 +1 x182 +1 x183 +1 x184 +1 x185 +1 x186 +1 x187 +1 x188 +1 x189 +1 x190 +1 x191 +1 x192 +1 x193 +1 x194 +1 x195 +1 x196 +1 x197 >= 9;
-1 x179 -1 x180 -1 x181 -1 x182 -1 x183 -1 x184 -1 x185 -1 x186 -1 x187 -1 x188 -1 x189 -1 x190 -1 x191 -1 x192 -1 x193 -1 x194 -1 x195 -1 x196 -1 x197 >= -10;
+1 x180 +1 x181 +1 x182 +1 x183 +1 x184 +1 x185 +1 x186 +1 x187 +1 x188 +1 x189 +1 x190 +1 x191 +1 x192 +1 x193 +1 x194 +1 x195 +1 x196 +1 x197 +1 x198 >= 9;
-1 x180 -1 x181 -1 x182 -1 x183 -1 x184 -1 x185 -1 x186 -1 x187 -1 x188 -1 x189 -1 x190 -1 x191 -1 x192 -1 x193 -1 x194 -1 x195 -1 x196 -1 x197 -1 x198 >= -10;
+1 x181 +1 x182 +1 x183 +1 x184 +1 x185 +1 x186 +1 x187 +1 x188 +1 x189 +1 x190 +1 x191 +1 x192 +1 x193 +1 x194 +1 x195 +1 x196 +1 x197 +1 x198 +1 x199 >= 9;
-1 x181 -1 x182 -1 x183 -1 x184 -1 x185 -1 x186 -1 x187 -1 x188 -1 x189 -1 x190 -1 x191 -1 x192 -1 x193 -1 x194 -1 x195 -1 x196 -1 x197 -1 x198 -1 x199 >= -10;
+1 x182 +1 x183 +1 x184 +1 x185 +1 x186 +1 x187 +1 x188 +1 x189 +1 x190 +1 x191 +1 x192 +1 x193 +1 x194 +1 x195 +1 x196 +1 x197 +1 x198 +1 x199 +1 x200 >= 9;
-1 x182 -1 x183 -1 x184 -1 x185 -1 x186 -1 x187 -1 x188 -1 x189 -1 x190 -1 x191 -1 x192 -1 x193 -1 x194 -1 x195 -1 x196 -1 x197 -1 x198 -1 x199 -1 x200 >= -10;
+1 x183 +1 x184 +1 x185 +1 x186 +1 x187 +1 x188 +1 x189 +1 x190 +1 x191 +1 x192 +1 x193 +1 x194 +1 x195 +1 x196 +1 x197 +1 x198 +1 x199 +1 x200 +1 x201 >= 9;
-1 x183 -1 x184 -1 x185 -1 x186 -1 x187 -1 x188 -1 x189 -1 x190 -1 x191 -1 x192 -1 x193 -1 x194 -1 x195 -1 x196 -1 x197 -1 x198 -1 x199 -1 x200 -1 x201 >= -10;
+1 x184 +1 x185 +1 x186 +1 x187 +1 x188 +1 x189 +1 x190 +1 x191 +1 x192 +1 x193 +1 x194 +1 x195 +1 x196 +1 x197 +1 x198 +1 x199 +1 x200 +1 x201 +1 x202 >= 9;
-1 x184 -1 x185 -1 x186 -1 x187 -1 x188 -1 x189 -1 x190 -1 x191 -1 x192 -1 x193 -1 x194 -1 x195 -1 x196 -1 x197 -1 x198 -1 x199 -1 x200 -1 x201 -1 x202 >= -10;
+1 x185 +1 x186 +1 x187 +1 x188 +1 x189 +1 x190 +1 x191 +1 x192 +1 x193 +1 x194 +1 x195 +1 x196 +1 x197 +1 x198 +1 x199 +1 x200 +1 x201 +1 x202 +1 x203 >= 9;
-1 x185 -1 x186 -1 x187 -1 x188 -1 x189 -1 x190 -1 x191 -1 x192 -1 x193 -1 x194 -1 x195 -1 x196 -1 x197 -1 x198 -1 x199 -1 x200 -1 x201 -1 x202 -1 x203 >= -10;
+1 x186 +1 x187 +1 x188 +1 x189 +1 x190 +1 x191 +1 x192 +1 x193 +1 x194 +1 x195 +1 x196 +1 x197 +1 x198 +1 x199 +1 x200 +1 x201 +1 x202 +1 x203 +1 x204 >= 9;
-1 x186 -1 x187 -1 x188 -1 x189 -1 x190 -1 x191 -1 x192 -1 x193 -1 x194 -1 x195 -1 x196 -1 x197 -1 x198 -1 x199 -1 x200 -1 x201 -1 x202 -1 x203 -1 x204 >= -10;
+1 x187 +1 x188 +1 x189 +1 x190 +1 x191 +1 x192 +1 x193 +1 x194 +1 x195 +1 x196 +1 x197 +1 x198 +1 x199 +1 x200 +1 x201 +1 x202 +1 x203 +1 x204 +1 x205 >= 9;
-1 x187 -1 x188 -1 x189 -1 x190 -1 x191 -1 x192 -1 x193 -1 x194 -1 x195 -1 x196 -1 x197 -1 x198 -1 x199 -1 x200 -1 x201 -1 x202 -1 x203 -1 x204 -1 x205 >= -10;
+1 x188 +1 x189 +1 x190 +1 x191 +1 x192 +1 x193 +1 x194 +1 x195 +1 x196 +1 x197 +1 x198 +1 x199 +1 x200 +1 x201 +1 x202 +1 x203 +1 x204 +1 x205 +1 x206 >= 9;
-1 x188 -1 x189 -1 x190 -1 x191 -1 x192 -1 x193 -1 x194 -1 x195 -1 x196 -1 x197 -1 x198 -1 x199 -1 x200 -1 x201 -1 x202 -1 x203 -1 x204 -1 x205 -1 x206 >= -10;
+1 x189 +1 x190 +1 x191 +1 x192 +1 x193 +1 x194 +1 x195 +1 x196 +1 x197 +1 x198 +1 x199 +1 x200 +1 x201 +1 x202 +1 x203 +1 x204 +1 x205 +1 x206 +1 x207 >= 9;
-1 x189 -1 x190 -1 x191 -1 x192 -1 x193 -1 x194 -1 x195 -1 x196 -1 x197 -1 x198 -1 x199 -1 x200 -1 x201 -1 x202 -1 x203 -1 x204 -1 x205 -1 x206 -1 x207 >= -10;
+1 x190 +1 x191 +1 x192 +1 x193 +1 x194 +1 x195 +1 x196 +1 x197 +1 x198 +1 x199 +1 x200 +1 x201 +1 x202 +1 x203 +1 x204 +1 x205 +1 x206 +1 x207 +1 x208 >= 9;
-1 x190 -1 x191 -1 x192 -1 x193 -1 x194 -1 x195 -1 x196 -1 x197 -1 x198 -1 x199 -1 x200 -1 x201 -1 x202 -1 x203 -1 x204 -1 x205 -1 x206 -1 x207 -1 x208 >= -10;
+1 x191 +1 x192 +1 x193 +1 x194 +1 x195 +1 x196 +1 x197 +1 x198 +1 x199 +1 x200 +1 x201 +1 x202 +1 x203 +1 x204 +1 x205 +1 x206 +1 x207 +1 x208 +1 x209 >= 9;
-1 x191 -1 x192 -1 x193 -1 x194 -1 x195 -1 x196 -1 x197 -1 x198 -1 x199 -1 x200 -1 x201 -1 x202 -1 x203 -1 x204 -1 x205 -1 x206 -1 x207 -1 x208 -1 x209 >= -10;
+1 x192 +1 x193 +1 x194 +1 x195 +1 x196 +1 x197 +1 x198 +1 x199 +1 x200 +1 x201 +1 x202 +1 x203 +1 x204 +1 x205 +1 x206 +1 x207 +1 x208 +1 x209 +1 x210 >= 9;
-1 x192 -1 x193 -1 x194 -1 x195 -1 x196 -1 x197 -1 x198 -1 x199 -1 x200 -1 x201 -1 x202 -1 x203 -1 x204 -1 x205 -1 x206 -1 x207 -1 x208 -1 x209 -1 x210 >= -10;
+1 x193 +1 x194 +1 x195 +1 x196 +1 x197 +1 x198 +1 x199 +1 x200 +1 x201 +1 x202 +1 x203 +1 x204 +1 x205 +1 x206 +1 x207 +1 x208 +1 x209 +1 x210 +1 x211 >= 9;
-1 x193 -1 x194 -1 x195 -1 x196 -1 x197 -1 x198 -1 x199 -1 x200 -1 x201 -1 x202 -1 x203 -1 x204 -1 x205 -1 x206 -1 x207 -1 x208 -1 x209 -1 x210 -1 x211 >= -10;
+1 x194 +1 x195 +1 x196 +1 x197 +1 x198 +1 x199 +1 x200 +1 x201 +1 x202 +1 x203 +1 x204 +1 x205 +1 x206 +1 x207 +1 x208 +1 x209 +1 x210 +1 x211 +1 x212 >= 9;
-1 x194 -1 x195 -1 x196 -1 x197 -1 x198 -1 x199 -1 x200 -1 x201 -1 x202 -1 x203 -1 x204 -1 x205 -1 x206 -1 x207 -1 x208 -1 x209 -1 x210 -1 x211 -1 x212 >= -10;
+1 x195 +1 x196 +1 x197 +1 x198 +1 x199 +1 x200 +1 x201 +1 x202 +1 x203 +1 x204 +1 x205 +1 x206 +1 x207 +1 x208 +1 x209 +1 x210 +1 x211 +1 x212 +1 x213 >= 9;
-1 x195 -1 x196 -1 x197 -1 x198 -1 x199 -1 x200 -1 x201 -1 x202 -1 x203 -1 x204 -1 x205 -1 x206 -1 x207 -1 x208 -1 x209 -1 x210 -1 x211 -1 x212 -1 x213 >= -10;
+1 x196 +1 x197 +1 x198 +1 x199 +1 x200 +1 x201 +1 x202 +1 x203 +1 x204 +1 x205 +1 x206 +1 x207 +1 x208 +1 x209 +1 x210 +1 x211 +1 x212 +1 x213 +1 x214 >= 9;
-1 x196 -1 x197 -1 x198 -1 x199 -1 x200 -1 x201 -1 x202 -1 x203 -1 x204 -1 x205 -1 x206 -1 x207 -1 x208 -1 x209 -1 x210 -1 x211 -1 x212 -1 x213 -1 x214 >= -10;
+1 x197 +1 x198 +1 x199 +1 x200 +1 x201 +1 x202 +1 x203 +1 x204 +1 x205 +1 x206 +1 x207 +1 x208 +1 x209 +1 x210 +1 x211 +1 x212 +1 x213 +1 x214 +1 x215 >= 9;
-1 x197 -1 x198 -1 x199 -1 x200 -1 x201 -1 x202 -1 x203 -1 x204 -1 x205 -1 x206 -1 x207 -1 x208 -1 x209 -1 x210 -1 x211 -1 x212 -1 x213 -1 x214 -1 x215 >= -10;
+1 x198 +1 x199 +1 x200 +1 x201 +1 x202 +1 x203 +1 x204 +1 x205 +1 x206 +1 x207 +1 x208 +1 x209 +1 x210 +1 x211 +1 x212 +1 x213 +1 x214 +1 x215 +1 x216 >= 9;
-1 x198 -1 x199 -1 x200 -1 x201 -1 x202 -1 x203 -1 x204 -1 x205 -1 x206 -1 x207 -1 x208 -1 x209 -1 x210 -1 x211 -1 x212 -1 x213 -1 x214 -1 x215 -1 x216 >= -10;
+1 x199 +1 x200 +1 x201 +1 x202 +1 x203 +1 x204 +1 x205 +1 x206 +1 x207 +1 x208 +1 x209 +1 x210 +1 x211 +1 x212 +1 x213 +1 x214 +1 x215 +1 x216 +1 x217 >= 9;
-1 x199 -1 x200 -1 x201 -1 x202 -1 x203 -1 x204 -1 x205 -1 x206 -1 x207 -1 x208 -1 x209 -1 x210 -1 x211 -1 x212 -1 x213 -1 x214 -1 x215 -1 x216 -1 x217 >= -10;
+1 x200 +1 x201 +1 x202 +1 x203 +1 x204 +1 x205 +1 x206 +1 x207 +1 x208 +1 x209 +1 x210 +1 x211 +1 x212 +1 x213 +1 x214 +1 x215 +1 x216 +1 x217 +1 x218 >= 9;
-1 x200 -1 x201 -1 x202 -1 x203 -1 x204 -1 x205 -1 x206 -1 x207 -1 x208 -1 x209 -1 x210 -1 x211 -1 x212 -1 x213 -1 x214 -1 x215 -1 x216 -1 x217 -1 x218 >= -10;
+1 x201 +1 x202 +1 x203 +1 x204 +1 x205 +1 x206 +1 x207 +1 x208 +1 x209 +1 x210 +1 x211 +1 x212 +1 x213 +1 x214 +1 x215 +1 x216 +1 x217 +1 x218 +1 x219 >= 9;
-1 x201 -1 x202 -1 x203 -1 x204 -1 x205 -1 x206 -1 x207 -1 x208 -1 x209 -1 x210 -1 x211 -1 x212 -1 x213 -1 x214 -1 x215 -1 x216 -1 x217 -1 x218 -1 x219 >= -10;
+1 x202 +1 x203 +1 x204 +1 x205 +1 x206 +1 x207 +1 x208 +1 x209 +1 x210 +1 x211 +1 x212 +1 x213 +1 x214 +1 x215 +1 x216 +1 x217 +1 x218 +1 x219 +1 x220 >= 9;
-1 x202 -1 x203 -1 x204 -1 x205 -1 x206 -1 x207 -1 x208 -1 x209 -1 x210 -1 x211 -1 x212 -1 x213 -1 x214 -1 x215 -1 x216 -1 x217 -1 x218 -1 x219 -1 x220 >= -10;
+1 x203 +1 x204 +1 x205 +1 x206 +1 x207 +1 x208 +1 x209 +1 x210 +1 x211 +1 x212 +1 x213 +1 x214 +1 x215 +1 x216 +1 x217 +1 x218 +1 x219 +1 x220 +1 x221 >= 9;
-1 x203 -1 x204 -1 x205 -1 x206 -1 x207 -1 x208 -1 x209 -1 x210 -1 x211 -1 x212 -1 x213 -1 x214 -1 x215 -1 x216 -1 x217 -1 x218 -1 x219 -1 x220 -1 x221 >= -10;
+1 x204 +1 x205 +1 x206 +1 x207 +1 x208 +1 x209 +1 x210 +1 x211 +1 x212 +1 x213 +1 x214 +1 x215 +1 x216 +1 x217 +1 x218 +1 x219 +1 x220 +1 x221 +1 x222 >= 9;
-1 x204 -1 x205 -1 x206 -1 x207 -1 x208 -1 x209 -1 x210 -1 x211 -1 x212 -1 x213 -1 x214 -1 x215 -1 x216 -1 x217 -1 x218 -1 x219 -1 x220 -1 x221 -1 x222 >= -10;
+1 x205 +1 x206 +1 x207 +1 x208 +1 x209 +1 x210 +1 x211 +1 x212 +1 x213 +1 x214 +1 x215 +1 x216 +1 x217 +1 x218 +1 x219 +1 x220 +1 x221 +1 x222 +1 x223 >= 9;
-1 x205 -1 x206 -1 x207 -1 x208 -1 x209 -1 x210 -1 x211 -1 x212 -1 x213 -1 x214 -1 x215 -1 x216 -1 x217 -1 x218 -1 x219 -1 x220 -1 x221 -1 x222 -1 x223 >= -10;
+1 x206 +1 x207 +1 x208 +1 x209 +1 x210 +1 x211 +1 x212 +1 x213 +1 x214 +1 x215 +1 x216 +1 x217 +1 x218 +1 x219 +1 x220 +1 x221 +1 x222 +1 x223 +1 x224 >= 9;
-1 x206 -1 x207 -1 x208 -1 x209 -1 x210 -1 x211 -1 x212 -1 x213 -1 x214 -1 x215 -1 x216 -1 x217 -1 x218 -1 x219 -1 x220 -1 x221 -1 x222 -1 x223 -1 x224 >= -10;
+1 x207 +1 x208 +1 x209 +1 x210 +1 x211 +1 x212 +1 x213 +1 x214 +1 x215 +1 x216 +1 x217 +1 x218 +1 x219 +1 x220 +1 x221 +1 x222 +1 x223 +1 x224 +1 x225 >= 9;
-1 x207 -1 x208 -1 x209 -1 x210 -1 x211 -1 x212 -1 x213 -1 x214 -1 x215 -1 x216 -1 x217 -1 x218 -1 x219 -1 x220 -1 x221 -1 x222 -1 x223 -1 x224 -1 x225 >= -10;
+1 x208 +1 x209 +1 x210 +1 x211 +1 x212 +1 x213 +1 x214 +1 x215 +1 x216 +1 x217 +1 x218 +1 x219 +1 x220 +1 x221 +1 x222 +1 x223 +1 x224 +1 x225 +1 x226 >= 9;
-1 x208 -1 x209 -1 x210 -1 x211 -1 x212 -1 x213 -1 x214 -1 x215 -1 x216 -1 x217 -1 x218 -1 x219 -1 x220 -1 x221 -1 x222 -1 x223 -1 x224 -1 x225 -1 x226 >= -10;
+1 x209 +1 x210 +1 x211 +1 x212 +1 x213 +1 x214 +1 x215 +1 x216 +1 x217 +1 x218 +1 x219 +1 x220 +1 x221 +1 x222 +1 x223 +1 x224 +1 x225 +1 x226 +1 x227 >= 9;
-1 x209 -1 x210 -1 x211 -1 x212 -1 x213 -1 x214 -1 x215 -1 x216 -1 x217 -1 x218 -1 x219 -1 x220 -1 x221 -1 x222 -1 x223 -1 x224 -1 x225 -1 x226 -1 x227 >= -10;
+1 x210 +1 x211 +1 x212 +1 x213 +1 x214 +1 x215 +1 x216 +1 x217 +1 x218 +1 x219 +1 x220 +1 x221 +1 x222 +1 x223 +1 x224 +1 x225 +1 x226 +1 x227 +1 x228 >= 9;
-1 x210 -1 x211 -1 x212 -1 x213 -1 x214 -1 x215 -1 x216 -1 x217 -1 x218 -1 x219 -1 x220 -1 x221 -1 x222 -1 x223 -1 x224 -1 x225 -1 x226 -1 x227 -1 x228 >= -10;
+1 x211 +1 x212 +1 x213 +1 x214 +1 x215 +1 x216 +1 x217 +1 x218 +1 x219 +1 x220 +1 x221 +1 x222 +1 x223 +1 x224 +1 x225 +1 x226 +1 x227 +1 x228 +1 x229 >= 9;
-1 x211 -1 x212 -1 x213 -1 x214 -1 x215 -1 x216 -1 x217 -1 x218 -1 x219 -1 x220 -1 x221 -1 x222 -1 x223 -1 x224 -1 x225 -1 x226 -1 x227 -1 x228 -1 x229 >= -10;
+1 x212 +1 x213 +1 x214 +1 x215 +1 x216 +1 x217 +1 x218 +1 x219 +1 x220 +1 x221 +1 x222 +1 x223 +1 x224 +1 x225 +1 x226 +1 x227 +1 x228 +1 x229 +1 x230 >= 9;
-1 x212 -1 x213 -1 x214 -1 x215 -1 x216 -1 x217 -1 x218 -1 x219 -1 x220 -1 x221 -1 x222 -1 x223 -1 x224 -1 x225 -1 x226 -1 x227 -1 x228 -1 x229 -1 x230 >= -10;
+1 x213 +1 x214 +1 x215 +1 x216 +1 x217 +1 x218 +1 x219 +1 x220 +1 x221 +1 x222 +1 x223 +1 x224 +1 x225 +1 x226 +1 x227 +1 x228 +1 x229 +1 x230 +1 x231 >= 9;
-1 x213 -1 x214 -1 x215 -1 x216 -1 x217 -1 x218 -1 x219 -1 x220 -1 x221 -1 x222 -1 x223 -1 x224 -1 x225 -1 x226 -1 x227 -1 x228 -1 x229 -1 x230 -1 x231 >= -10;
+1 x214 +1 x215 +1 x216 +1 x217 +1 x218 +1 x219 +1 x220 +1 x221 +1 x222 +1 x223 +1 x224 +1 x225 +1 x226 +1 x227 +1 x228 +1 x229 +1 x230 +1 x231 +1 x232 >= 9;
-1 x214 -1 x215 -1 x216 -1 x217 -1 x218 -1 x219 -1 x220 -1 x221 -1 x222 -1 x223 -1 x224 -1 x225 -1 x226 -1 x227 -1 x228 -1 x229 -1 x230 -1 x231 -1 x232 >= -10;
+1 x215 +1 x216 +1 x217 +1 x218 +1 x219 +1 x220 +1 x221 +1 x222 +1 x223 +1 x224 +1 x225 +1 x226 +1 x227 +1 x228 +1 x229 +1 x230 +1 x231 +1 x232 +1 x233 >= 9;
-1 x215 -1 x216 -1 x217 -1 x218 -1 x219 -1 x220 -1 x221 -1 x222 -1 x223 -1 x224 -1 x225 -1 x226 -1 x227 -1 x228 -1 x229 -1 x230 -1 x231 -1 x232 -1 x233 >= -10;
+1 x216 +1 x217 +1 x218 +1 x219 +1 x220 +1 x221 +1 x222 +1 x223 +1 x224 +1 x225 +1 x226 +1 x227 +1 x228 +1 x229 +1 x230 +1 x231 +1 x232 +1 x233 +1 x234 >= 9;
-1 x216 -1 x217 -1 x218 -1 x219 -1 x220 -1 x221 -1 x222 -1 x223 -1 x224 -1 x225 -1 x226 -1 x227 -1 x228 -1 x229 -1 x230 -1 x231 -1 x232 -1 x233 -1 x234 >= -10;
+1 x217 +1 x218 +1 x219 +1 x220 +1 x221 +1 x222 +1 x223 +1 x224 +1 x225 +1 x226 +1 x227 +1 x228 +1 x229 +1 x230 +1 x231 +1 x232 +1 x233 +1 x234 +1 x235 >= 9;
-1 x217 -1 x218 -1 x219 -1 x220 -1 x221 -1 x222 -1 x223 -1 x224 -1 x225 -1 x226 -1 x227 -1 x228 -1 x229 -1 x230 -1 x231 -1 x232 -1 x233 -1 x234 -1 x235 >= -10;
+1 x218 +1 x219 +1 x220 +1 x221 +1 x222 +1 x223 +1 x224 +1 x225 +1 x226 +1 x227 +1 x228 +1 x229 +1 x230 +1 x231 +1 x232 +1 x233 +1 x234 +1 x235 +1 x236 >= 9;
-1 x218 -1 x219 -1 x220 -1 x221 -1 x222 -1 x223 -1 x224 -1 x225 -1 x226 -1 x227 -1 x228 -1 x229 -1 x230 -1 x231 -1 x232 -1 x233 -1 x234 -1 x235 -1 x236 >= -10;
+1 x219 +1 x220 +1 x221 +1 x222 +1 x223 +1 x224 +1 x225 +1 x226 +1 x227 +1 x228 +1 x229 +1 x230 +1 x231 +1 x232 +1 x233 +1 x234 +1 x235 +1 x236 +1 x237 >= 9;
-1 x219 -1 x220 -1 x221 -1 x222 -1 x223 -1 x224 -1 x225 -1 x226 -1 x227 -1 x228 -1 x229 -1 x230 -1 x231 -1 x232 -1 x233 -1 x234 -1 x235 -1 x236 -1 x237 >= -10;
+1 x220 +1 x221 +1 x222 +1 x223 +1 x224 +1 x225 +1 x226 +1 x227 +1 x228 +1 x229 +1 x230 +1 x231 +1 x232 +1 x233 +1 x234 +1 x235 +1 x236 +1 x237 +1 x238 >= 9;
-1 x220 -1 x221 -1 x222 -1 x223 -1 x224 -1 x225 -1 x226 -1 x227 -1 x228 -1 x229 -1 x230 -1 x231 -1 x232 -1 x233 -1 x234 -1 x235 -1 x236 -1 x237 -1 x238 >= -10;
+1 x221 +1 x222 +1 x223 +1 x224 +1 x225 +1 x226 +1 x227 +1 x228 +1 x229 +1 x230 +1 x231 +1 x232 +1 x233 +1 x234 +1 x235 +1 x236 +1 x237 +1 x238 +1 x239 >= 9;
-1 x221 -1 x222 -1 x223 -1 x224 -1 x225 -1 x226 -1 x227 -1 x228 -1 x229 -1 x230 -1 x231 -1 x232 -1 x233 -1 x234 -1 x235 -1 x236 -1 x237 -1 x238 -1 x239 >= -10;
+1 x222 +1 x223 +1 x224 +1 x225 +1 x226 +1 x227 +1 x228 +1 x229 +1 x230 +1 x231 +1 x232 +1 x233 +1 x234 +1 x235 +1 x236 +1 x237 +1 x238 +1 x239 +1 x240 >= 9;
-1 x222 -1 x223 -1 x224 -1 x225 -1 x226 -1 x227 -1 x228 -1 x229 -1 x230 -1 x231 -1 x232 -1 x233 -1 x234 -1 x235 -1 x236 -1 x237 -1 x238 -1 x239 -1 x240 >= -10;
+1 x223 +1 x224 +1 x225 +1 x226 +1 x227 +1 x228 +1 x229 +1 x230 +1 x231 +1 x232 +1 x233 +1 x234 +1 x235 +1 x236 +1 x237 +1 x238 +1 x239 +1 x240 +1 x241 >= 9;
-1 x223 -1 x224 -1 x225 -1 x226 -1 x227 -1 x228 -1 x229 -1 x230 -1 x231 -1 x232 -1 x233 -1 x234 -1 x235 -1 x236 -1 x237 -1 x238 -1 x239 -1 x240 -1 x241 >= -10;
+1 x224 +1 x225 +1 x226 +1 x227 +1 x228 +1 x229 +1 x230 +1 x231 +1 x232 +1 x233 +1 x234 +1 x235 +1 x236 +1 x237 +1 x238 +1 x239 +1 x240 +1 x241 +1 x242 >= 9;
-1 x224 -1 x225 -1 x226 -1 x227 -1 x228 -1 x229 -1 x230 -1 x231 -1 x232 -1 x233 -1 x234 -1 x235 -1 x236 -1 x237 -1 x238 -1 x239 -1 x240 -1 x241 -1 x242 >= -10;
+1 x225 +1 x226 +1 x227 +1 x228 +1 x229 +1 x230 +1 x231 +1 x232 +1 x233 +1 x234 +1 x235 +1 x236 +1 x237 +1 x238 +1 x239 +1 x240 +1 x241 +1 x242 +1 x243 >= 9;
-1 x225 -1 x226 -1 x227 -1 x228 -1 x229 -1 x230 -1 x231 -1 x232 -1 x233 -1 x234 -1 x235 -1 x236 -1 x237 -1 x238 -1 x239 -1 x240 -1 x241 -1 x242 -1 x243 >= -10;
+1 x226 +1 x227 +1 x228 +1 x229 +1 x230 +1 x231 +1 x232 +1 x233 +1 x234 +1 x235 +1 x236 +1 x237 +1 x238 +1 x239 +1 x240 +1 x241 +1 x242 +1 x243 +1 x244 >= 9;
-1 x226 -1 x227 -1 x228 -1 x229 -1 x230 -1 x231 -1 x232 -1 x233 -1 x234 -1 x235 -1 x236 -1 x237 -1 x238 -1 x239 -1 x240 -1 x241 -1 x242 -1 x243 -1 x244 >= -10;
+1 x227 +1 x228 +1 x229 +1 x230 +1 x231 +1 x232 +1 x233 +1 x234 +1 x235 +1 x236 +1 x237 +1 x238 +1 x239 +1 x240 +1 x241 +1 x242 +1 x243 +1 x244 +1 x245 >= 9;
-1 x227 -1 x228 -1 x229 -1 x230 -1 x231 -1 x232 -1 x233 -1 x234 -1 x235 -1 x236 -1 x237 -1 x238 -1 x239 -1 x240 -1 x241 -1 x242 -1 x243 -1 x244 -1 x245 >= -10;
+1 x228 +1 x229 +1 x230 +1 x231 +1 x232 +1 x233 +1 x234 +1 x235 +1 x236 +1 x237 +1 x238 +1 x239 +1 x240 +1 x241 +1 x242 +1 x243 +1 x244 +1 x245 +1 x246 >= 9;
-1 x228 -1 x229 -1 x230 -1 x231 -1 x232 -1 x233 -1 x234 -1 x235 -1 x236 -1 x237 -1 x238 -1 x239 -1 x240 -1 x241 -1 x242 -1 x243 -1 x244 -1 x245 -1 x246 >= -10;
+1 x229 +1 x230 +1 x231 +1 x232 +1 x233 +1 x234 +1 x235 +1 x236 +1 x237 +1 x238 +1 x239 +1 x240 +1 x241 +1 x242 +1 x243 +1 x244 +1 x245 +1 x246 +1 x247 >= 9;
-1 x229 -1 x230 -1 x231 -1 x232 -1 x233 -1 x234 -1 x235 -1 x236 -1 x237 -1 x238 -1 x239 -1 x240 -1 x241 -1 x242 -1 x243 -1 x244 -1 x245 -1 x246 -1 x247 >= -10;
+1 x230 +1 x231 +1 x232 +1 x233 +1 x234 +1 x235 +1 x236 +1 x237 +1 x238 +1 x239 +1 x240 +1 x241 +1 x242 +1 x243 +1 x244 +1 x245 +1 x246 +1 x247 +1 x248 >= 9;
-1 x230 -1 x231 -1 x232 -1 x233 -1 x234 -1 x235 -1 x236 -1 x237 -1 x238 -1 x239 -1 x240 -1 x241 -1 x242 -1 x243 -1 x244 -1 x245 -1 x246 -1 x247 -1 x248 >= -10;
+1 x231 +1 x232 +1 x233 +1 x234 +1 x235 +1 x236 +1 x237 +1 x238 +1 x239 +1 x240 +1 x241 +1 x242 +1 x243 +1 x244 +1 x245 +1 x246 +1 x247 +1 x248 +1 x249 >= 9;
-1 x231 -1 x232 -1 x233 -1 x234 -1 x235 -1 x236 -1 x237 -1 x238 -1 x239 -1 x240 -1 x241 -1 x242 -1 x243 -1 x244 -1 x245 -1 x246 -1 x247 -1 x248 -1 x249 >= -10;
+1 x232 +1 x233 +1 x234 +1 x235 +1 x236 +1 x237 +1 x238 +1 x239 +1 x240 +1 x241 +1 x242 +1 x243 +1 x244 +1 x245 +1 x246 +1 x247 +1 x248 +1 x249 +1 x250 >= 9;
-1 x232 -1 x233 -1 x234 -1 x235 -1 x236 -1 x237 -1 x238 -1 x239 -1 x240 -1 x241 -1 x242 -1 x243 -1 x244 -1 x245 -1 x246 -1 x247 -1 x248 -1 x249 -1 x250 >= -10;
+1 x233 +1 x234 +1 x235 +1 x236 +1 x237 +1 x238 +1 x239 +1 x240 +1 x241 +1 x242 +1 x243 +1 x244 +1 x245 +1 x246 +1 x247 +1 x248 +1 x249 +1 x250 +1 x251 >= 9;
-1 x233 -1 x234 -1 x235 -1 x236 -1 x237 -1 x238 -1 x239 -1 x240 -1 x241 -1 x242 -1 x243 -1 x244 -1 x245 -1 x246 -1 x247 -1 x248 -1 x249 -1 x250 -1 x251 >= -10;
+1 x234 +1 x235 +1 x236 +1 x237 +1 x238 +1 x239 +1 x240 +1 x241 +1 x242 +1 x243 +1 x244 +1 x245 +1 x246 +1 x247 +1 x248 +1 x249 +1 x250 +1 x251 +1 x252 >= 9;
-1 x234 -1 x235 -1 x236 -1 x237 -1 x238 -1 x239 -1 x240 -1 x241 -1 x242 -1 x243 -1 x244 -1 x245 -1 x246 -1 x247 -1 x248 -1 x249 -1 x250 -1 x251 -1 x252 >= -10;
+1 x235 +1 x236 +1 x237 +1 x238 +1 x239 +1 x240 +1 x241 +1 x242 +1 x243 +1 x244 +1 x245 +1 x246 +1 x247 +1 x248 +1 x249 +1 x250 +1 x251 +1 x252 +1 x253 >= 9;
-1 x235 -1 x236 -1 x237 -1 x238 -1 x239 -1 x240 -1 x241 -1 x242 -1 x243 -1 x244 -1 x245 -1 x246 -1 x247 -1 x248 -1 x249 -1 x250 -1 x251 -1 x252 -1 x253 >= -10;
+1 x236 +1 x237 +1 x238 +1 x239 +1 x240 +1 x241 +1 x242 +1 x243 +1 x244 +1 x245 +1 x246 +1 x247 +1 x248 +1 x249 +1 x250 +1 x251 +1 x252 +1 x253 +1 x254 >= 9;
-1 x236 -1 x237 -1 x238 -1 x239 -1 x240 -1 x241 -1 x242 -1 x243 -1 x244 -1 x245 -1 x246 -1 x247 -1 x248 -1 x249 -1 x250 -1 x251 -1 x252 -1 x253 -1 x254 >= -10;
+1 x237 +1 x238 +1 x239 +1 x240 +1 x241 +1 x242 +1 x243 +1 x244 +1 x245 +1 x246 +1 x247 +1 x248 +1 x249 +1 x250 +1 x251 +1 x252 +1 x253 +1 x254 +1 x255 >= 9;
-1 x237 -1 x238 -1 x239 -1 x240 -1 x241 -1 x242 -1 x243 -1 x244 -1 x245 -1 x246 -1 x247 -1 x248 -1 x249 -1 x250 -1 x251 -1 x252 -1 x253 -1 x254 -1 x255 >= -10;
+1 x238 +1 x239 +1 x240 +1 x241 +1 x242 +1 x243 +1 x244 +1 x245 +1 x246 +1 x247 +1 x248 +1 x249 +1 x250 +1 x251 +1 x252 +1 x253 +1 x254 +1 x255 +1 x256 >= 9;
-1 x238 -1 x239 -1 x240 -1 x241 -1 x242 -1 x243 -1 x244 -1 x245 -1 x246 -1 x247 -1 x248 -1 x249 -1 x250 -1 x251 -1 x252 -1 x253 -1 x254 -1 x255 -1 x256 >= -10;
+1 x239 +1 x240 +1 x241 +1 x242 +1 x243 +1 x244 +1 x245 +1 x246 +1 x247 +1 x248 +1 x249 +1 x250 +1 x251 +1 x252 +1 x253 +1 x254 +1 x255 +1 x256 +1 x257 >= 9;
-1 x239 -1 x240 -1 x241 -1 x242 -1 x243 -1 x244 -1 x245 -1 x246 -1 x247 -1 x248 -1 x249 -1 x250 -1 x251 -1 x252 -1 x253 -1 x254 -1 x255 -1 x256 -1 x257 >= -10;
+1 x240 +1 x241 +1 x242 +1 x243 +1 x244 +1 x245 +1 x246 +1 x247 +1 x248 +1 x249 +1 x250 +1 x251 +1 x252 +1 x253 +1 x254 +1 x255 +1 x256 +1 x257 +1 x258 >= 9;
-1 x240 -1 x241 -1 x242 -1 x243 -1 x244 -1 x245 -1 x246 -1 x247 -1 x248 -1 x249 -1 x250 -1 x251 -1 x252 -1 x253 -1 x254 -1 x255 -1 x256 -1 x257 -1 x258 >= -10;
+1 x241 +1 x242 +1 x243 +1 x244 +1 x245 +1 x246 +1 x247 +1 x248 +1 x249 +1 x250 +1 x251 +1 x252 +1 x253 +1 x254 +1 x255 +1 x256 +1 x257 +1 x258 +1 x259 >= 9;
-1 x241 -1 x242 -1 x243 -1 x244 -1 x245 -1 x246 -1 x247 -1 x248 -1 x249 -1 x250 -1 x251 -1 x252 -1 x253 -1 x254 -1 x255 -1 x256 -1 x257 -1 x258 -1 x259 >= -10;
+1 x242 +1 x243 +1 x244 +1 x245 +1 x246 +1 x247 +1 x248 +1 x249 +1 x250 +1 x251 +1 x252 +1 x253 +1 x254 +1 x255 +1 x256 +1 x257 +1 x258 +1 x259 +1 x260 >= 9;
-1 x242 -1 x243 -1 x244 -1 x245 -1 x246 -1 x247 -1 x248 -1 x249 -1 x250 -1 x251 -1 x252 -1 x253 -1 x254 -1 x255 -1 x256 -1 x257 -1 x258 -1 x259 -1 x260 >= -10;
+1 x243 +1 x244 +1 x245 +1 x246 +1 x247 +1 x248 +1 x249 +1 x250 +1 x251 +1 x252 +1 x253 +1 x254 +1 x255 +1 x256 +1 x257 +1 x258 +1 x259 +1 x260 +1 x261 >= 9;
-1 x243 -1 x244 -1 x245 -1 x246 -1 x247 -1 x248 -1 x249 -1 x250 -1 x251 -1 x252 -1 x253 -1 x254 -1 x255 -1 x256 -1 x257 -1 x258 -1 x259 -1 x260 -1 x261 >= -10;
+1 x244 +1 x245 +1 x246 +1 x247 +1 x248 +1 x249 +1 x250 +1 x251 +1 x252 +1 x253 +1 x254 +1 x255 +1 x256 +1 x257 +1 x258 +1 x259 +1 x260 +1 x261 +1 x262 >= 9;
-1 x244 -1 x245 -1 x246 -1 x247 -1 x248 -1 x249 -1 x250 -1 x251 -1 x252 -1 x253 -1 x254 -1 x255 -1 x256 -1 x257 -1 x258 -1 x259 -1 x260 -1 x261 -1 x262 >= -10;
+1 x245 +1 x246 +1 x247 +1 x248 +1 x249 +1 x250 +1 x251 +1 x252 +1 x253 +1 x254 +1 x255 +1 x256 +1 x257 +1 x258 +1 x259 +1 x260 +1 x261 +1 x262 +1 x263 >= 9;
-1 x245 -1 x246 -1 x247 -1 x248 -1 x249 -1 x250 -1 x251 -1 x252 -1 x253 -1 x254 -1 x255 -1 x256 -1 x257 -1 x258 -1 x259 -1 x260 -1 x261 -1 x262 -1 x263 >= -10;
+1 x246 +1 x247 +1 x248 +1 x249 +1 x250 +1 x251 +1 x252 +1 x253 +1 x254 +1 x255 +1 x256 +1 x257 +1 x258 +1 x259 +1 x260 +1 x261 +1 x262 +1 x263 +1 x264 >= 9;
-1 x246 -1 x247 -1 x248 -1 x249 -1 x250 -1 x251 -1 x252 -1 x253 -1 x254 -1 x255 -1 x256 -1 x257 -1 x258 -1 x259 -1 x260 -1 x261 -1 x262 -1 x263 -1 x264 >= -10;
+1 x247 +1 x248 +1 x249 +1 x250 +1 x251 +1 x252 +1 x253 +1 x254 +1 x255 +1 x256 +1 x257 +1 x258 +1 x259 +1 x260 +1 x261 +1 x262 +1 x263 +1 x264 +1 x265 >= 9;
-1 x247 -1 x248 -1 x249 -1 x250 -1 x251 -1 x252 -1 x253 -1 x254 -1 x255 -1 x256 -1 x257 -1 x258 -1 x259 -1 x260 -1 x261 -1 x262 -1 x263 -1 x264 -1 x265 >= -10;
+1 x248 +1 x249 +1 x250 +1 x251 +1 x252 +1 x253 +1 x254 +1 x255 +1 x256 +1 x257 +1 x258 +1 x259 +1 x260 +1 x261 +1 x262 +1 x263 +1 x264 +1 x265 +1 x266 >= 9;
-1 x248 -1 x249 -1 x250 -1 x251 -1 x252 -1 x253 -1 x254 -1 x255 -1 x256 -1 x257 -1 x258 -1 x259 -1 x260 -1 x261 -1 x262 -1 x263 -1 x264 -1 x265 -1 x266 >= -10;
+1 x249 +1 x250 +1 x251 +1 x252 +1 x253 +1 x254 +1 x255 +1 x256 +1 x257 +1 x258 +1 x259 +1 x260 +1 x261 +1 x262 +1 x263 +1 x264 +1 x265 +1 x266 +1 x267 >= 9;
-1 x249 -1 x250 -1 x251 -1 x252 -1 x253 -1 x254 -1 x255 -1 x256 -1 x257 -1 x258 -1 x259 -1 x260 -1 x261 -1 x262 -1 x263 -1 x264 -1 x265 -1 x266 -1 x267 >= -10;
+1 x250 +1 x251 +1 x252 +1 x253 +1 x254 +1 x255 +1 x256 +1 x257 +1 x258 +1 x259 +1 x260 +1 x261 +1 x262 +1 x263 +1 x264 +1 x265 +1 x266 +1 x267 +1 x268 >= 9;
-1 x250 -1 x251 -1 x252 -1 x253 -1 x254 -1 x255 -1 x256 -1 x257 -1 x258 -1 x259 -1 x260 -1 x261 -1 x262 -1 x263 -1 x264 -1 x265 -1 x266 -1 x267 -1 x268 >= -10;
+1 x251 +1 x252 +1 x253 +1 x254 +1 x255 +1 x256 +1 x257 +1 x258 +1 x259 +1 x260 +1 x261 +1 x262 +1 x263 +1 x264 +1 x265 +1 x266 +1 x267 +1 x268 +1 x269 >= 9;
-1 x251 -1 x252 -1 x253 -1 x254 -1 x255 -1 x256 -1 x257 -1 x258 -1 x259 -1 x260 -1 x261 -1 x262 -1 x263 -1 x264 -1 x265 -1 x266 -1 x267 -1 x268 -1 x269 >= -10;
+1 x252 +1 x253 +1 x254 +1 x255 +1 x256 +1 x257 +1 x258 +1 x259 +1 x260 +1 x261 +1 x262 +1 x263 +1 x264 +1 x265 +1 x266 +1 x267 +1 x268 +1 x269 +1 x270 >= 9;
-1 x252 -1 x253 -1 x254 -1 x255 -1 x256 -1 x257 -1 x258 -1 x259 -1 x260 -1 x261 -1 x262 -1 x263 -1 x264 -1 x265 -1 x266 -1 x267 -1 x268 -1 x269 -1 x270 >= -10;
+1 x253 +1 x254 +1 x255 +1 x256 +1 x257 +1 x258 +1 x259 +1 x260 +1 x261 +1 x262 +1 x263 +1 x264 +1 x265 +1 x266 +1 x267 +1 x268 +1 x269 +1 x270 +1 x271 >= 9;
-1 x253 -1 x254 -1 x255 -1 x256 -1 x257 -1 x258 -1 x259 -1 x260 -1 x261 -1 x262 -1 x263 -1 x264 -1 x265 -1 x266 -1 x267 -1 x268 -1 x269 -1 x270 -1 x271 >= -10;
+1 x254 +1 x255 +1 x256 +1 x257 +1 x258 +1 x259 +1 x260 +1 x261 +1 x262 +1 x263 +1 x264 +1 x265 +1 x266 +1 x267 +1 x268 +1 x269 +1 x270 +1 x271 +1 x272 >= 9;
-1 x254 -1 x255 -1 x256 -1 x257 -1 x258 -1 x259 -1 x260 -1 x261 -1 x262 -1 x263 -1 x264 -1 x265 -1 x266 -1 x267 -1 x268 -1 x269 -1 x270 -1 x271 -1 x272 >= -10;
+1 x255 +1 x256 +1 x257 +1 x258 +1 x259 +1 x260 +1 x261 +1 x262 +1 x263 +1 x264 +1 x265 +1 x266 +1 x267 +1 x268 +1 x269 +1 x270 +1 x271 +1 x272 +1 x273 >= 9;
-1 x255 -1 x256 -1 x257 -1 x258 -1 x259 -1 x260 -1 x261 -1 x262 -1 x263 -1 x264 -1 x265 -1 x266 -1 x267 -1 x268 -1 x269 -1 x270 -1 x271 -1 x272 -1 x273 >= -10;
+1 x256 +1 x257 +1 x258 +1 x259 +1 x260 +1 x261 +1 x262 +1 x263 +1 x264 +1 x265 +1 x266 +1 x267 +1 x268 +1 x269 +1 x270 +1 x271 +1 x272 +1 x273 +1 x274 >= 9;
-1 x256 -1 x257 -1 x258 -1 x259 -1 x260 -1 x261 -1 x262 -1 x263 -1 x264 -1 x265 -1 x266 -1 x267 -1 x268 -1 x269 -1 x270 -1 x271 -1 x272 -1 x273 -1 x274 >= -10;
+1 x257 +1 x258 +1 x259 +1 x260 +1 x261 +1 x262 +1 x263 +1 x264 +1 x265 +1 x266 +1 x267 +1 x268 +1 x269 +1 x270 +1 x271 +1 x272 +1 x273 +1 x274 +1 x275 >= 9;
-1 x257 -1 x258 -1 x259 -1 x260 -1 x261 -1 x262 -1 x263 -1 x264 -1 x265 -1 x266 -1 x267 -1 x268 -1 x269 -1 x270 -1 x271 -1 x272 -1 x273 -1 x274 -1 x275 >= -10;
+1 x258 +1 x259 +1 x260 +1 x261 +1 x262 +1 x263 +1 x264 +1 x265 +1 x266 +1 x267 +1 x268 +1 x269 +1 x270 +1 x271 +1 x272 +1 x273 +1 x274 +1 x275 +1 x276 >= 9;
-1 x258 -1 x259 -1 x260 -1 x261 -1 x262 -1 x263 -1 x264 -1 x265 -1 x266 -1 x267 -1 x268 -1 x269 -1 x270 -1 x271 -1 x272 -1 x273 -1 x274 -1 x275 -1 x276 >= -10;
+1 x259 +1 x260 +1 x261 +1 x262 +1 x263 +1 x264 +1 x265 +1 x266 +1 x267 +1 x268 +1 x269 +1 x270 +1 x271 +1 x272 +1 x273 +1 x274 +1 x275 +1 x276 +1 x277 >= 9;
-1 x259 -1 x260 -1 x261 -1 x262 -1 x263 -1 x264 -1 x265 -1 x266 -1 x267 -1 x268 -1 x269 -1 x270 -1 x271 -1 x272 -1 x273 -1 x274 -1 x275 -1 x276 -1 x277 >= -10;
+1 x260 +1 x261 +1 x262 +1 x263 +1 x264 +1 x265 +1 x266 +1 x267 +1 x268 +1 x269 +1 x270 +1 x271 +1 x272 +1 x273 +1 x274 +1 x275 +1 x276 +1 x277 +1 x278 >= 9;
-1 x260 -1 x261 -1 x262 -1 x263 -1 x264 -1 x265 -1 x266 -1 x267 -1 x268 -1 x269 -1 x270 -1 x271 -1 x272 -1 x273 -1 x274 -1 x275 -1 x276 -1 x277 -1 x278 >= -10;
+1 x261 +1 x262 +1 x263 +1 x264 +1 x265 +1 x266 +1 x267 +1 x268 +1 x269 +1 x270 +1 x271 +1 x272 +1 x273 +1 x274 +1 x275 +1 x276 +1 x277 +1 x278 +1 x279 >= 9;
-1 x261 -1 x262 -1 x263 -1 x264 -1 x265 -1 x266 -1 x267 -1 x268 -1 x269 -1 x270 -1 x271 -1 x272 -1 x273 -1 x274 -1 x275 -1 x276 -1 x277 -1 x278 -1 x279 >= -10;
+1 x262 +1 x263 +1 x264 +1 x265 +1 x266 +1 x267 +1 x268 +1 x269 +1 x270 +1 x271 +1 x272 +1 x273 +1 x274 +1 x275 +1 x276 +1 x277 +1 x278 +1 x279 +1 x280 >= 9;
-1 x262 -1 x263 -1 x264 -1 x265 -1 x266 -1 x267 -1 x268 -1 x269 -1 x270 -1 x271 -1 x272 -1 x273 -1 x274 -1 x275 -1 x276 -1 x277 -1 x278 -1 x279 -1 x280 >= -10;
+1 x263 +1 x264 +1 x265 +1 x266 +1 x267 +1 x268 +1 x269 +1 x270 +1 x271 +1 x272 +1 x273 +1 x274 +1 x275 +1 x276 +1 x277 +1 x278 +1 x279 +1 x280 +1 x281 >= 9;
-1 x263 -1 x264 -1 x265 -1 x266 -1 x267 -1 x268 -1 x269 -1 x270 -1 x271 -1 x272 -1 x273 -1 x274 -1 x275 -1 x276 -1 x277 -1 x278 -1 x279 -1 x280 -1 x281 >= -10;
+1 x264 +1 x265 +1 x266 +1 x267 +1 x268 +1 x269 +1 x270 +1 x271 +1 x272 +1 x273 +1 x274 +1 x275 +1 x276 +1 x277 +1 x278 +1 x279 +1 x280 +1 x281 +1 x282 >= 9;
-1 x264 -1 x265 -1 x266 -1 x267 -1 x268 -1 x269 -1 x270 -1 x271 -1 x272 -1 x273 -1 x274 -1 x275 -1 x276 -1 x277 -1 x278 -1 x279 -1 x280 -1 x281 -1 x282 >= -10;
+1 x265 +1 x266 +1 x267 +1 x268 +1 x269 +1 x270 +1 x271 +1 x272 +1 x273 +1 x274 +1 x275 +1 x276 +1 x277 +1 x278 +1 x279 +1 x280 +1 x281 +1 x282 +1 x283 >= 9;
-1 x265 -1 x266 -1 x267 -1 x268 -1 x269 -1 x270 -1 x271 -1 x272 -1 x273 -1 x274 -1 x275 -1 x276 -1 x277 -1 x278 -1 x279 -1 x280 -1 x281 -1 x282 -1 x283 >= -10;
+1 x266 +1 x267 +1 x268 +1 x269 +1 x270 +1 x271 +1 x272 +1 x273 +1 x274 +1 x275 +1 x276 +1 x277 +1 x278 +1 x279 +1 x280 +1 x281 +1 x282 +1 x283 +1 x284 >= 9;
-1 x266 -1 x267 -1 x268 -1 x269 -1 x270 -1 x271 -1 x272 -1 x273 -1 x274 -1 x275 -1 x276 -1 x277 -1 x278 -1 x279 -1 x280 -1 x281 -1 x282 -1 x283 -1 x284 >= -10;
+1 x267 +1 x268 +1 x269 +1 x270 +1 x271 +1 x272 +1 x273 +1 x274 +1 x275 +1 x276 +1 x277 +1 x278 +1 x279 +1 x280 +1 x281 +1 x282 +1 x283 +1 x284 +1 x285 >= 9;
-1 x267 -1 x268 -1 x269 -1 x270 -1 x271 -1 x272 -1 x273 -1 x274 -1 x275 -1 x276 -1 x277 -1 x278 -1 x279 -1 x280 -1 x281 -1 x282 -1 x283 -1 x284 -1 x285 >= -10;
+1 x268 +1 x269 +1 x270 +1 x271 +1 x272 +1 x273 +1 x274 +1 x275 +1 x276 +1 x277 +1 x278 +1 x279 +1 x280 +1 x281 +1 x282 +1 x283 +1 x284 +1 x285 +1 x286 >= 9;
-1 x268 -1 x269 -1 x270 -1 x271 -1 x272 -1 x273 -1 x274 -1 x275 -1 x276 -1 x277 -1 x278 -1 x279 -1 x280 -1 x281 -1 x282 -1 x283 -1 x284 -1 x285 -1 x286 >= -10;
+1 x269 +1 x270 +1 x271 +1 x272 +1 x273 +1 x274 +1 x275 +1 x276 +1 x277 +1 x278 +1 x279 +1 x280 +1 x281 +1 x282 +1 x283 +1 x284 +1 x285 +1 x286 +1 x287 >= 9;
-1 x269 -1 x270 -1 x271 -1 x272 -1 x273 -1 x274 -1 x275 -1 x276 -1 x277 -1 x278 -1 x279 -1 x280 -1 x281 -1 x282 -1 x283 -1 x284 -1 x285 -1 x286 -1 x287 >= -10;
+1 x270 +1 x271 +1 x272 +1 x273 +1 x274 +1 x275 +1 x276 +1 x277 +1 x278 +1 x279 +1 x280 +1 x281 +1 x282 +1 x283 +1 x284 +1 x285 +1 x286 +1 x287 +1 x288 >= 9;
-1 x270 -1 x271 -1 x272 -1 x273 -1 x274 -1 x275 -1 x276 -1 x277 -1 x278 -1 x279 -1 x280 -1 x281 -1 x282 -1 x283 -1 x284 -1 x285 -1 x286 -1 x287 -1 x288 >= -10;
+1 x271 +1 x272 +1 x273 +1 x274 +1 x275 +1 x276 +1 x277 +1 x278 +1 x279 +1 x280 +1 x281 +1 x282 +1 x283 +1 x284 +1 x285 +1 x286 +1 x287 +1 x288 +1 x289 >= 9;
-1 x271 -1 x272 -1 x273 -1 x274 -1 x275 -1 x276 -1 x277 -1 x278 -1 x279 -1 x280 -1 x281 -1 x282 -1 x283 -1 x284 -1 x285 -1 x286 -1 x287 -1 x288 -1 x289 >= -10;
+1 x272 +1 x273 +1 x274 +1 x275 +1 x276 +1 x277 +1 x278 +1 x279 +1 x280 +1 x281 +1 x282 +1 x283 +1 x284 +1 x285 +1 x286 +1 x287 +1 x288 +1 x289 +1 x290 >= 9;
-1 x272 -1 x273 -1 x274 -1 x275 -1 x276 -1 x277 -1 x278 -1 x279 -1 x280 -1 x281 -1 x282 -1 x283 -1 x284 -1 x285 -1 x286 -1 x287 -1 x288 -1 x289 -1 x290 >= -10;
+1 x273 +1 x274 +1 x275 +1 x276 +1 x277 +1 x278 +1 x279 +1 x280 +1 x281 +1 x282 +1 x283 +1 x284 +1 x285 +1 x286 +1 x287 +1 x288 +1 x289 +1 x290 +1 x291 >= 9;
-1 x273 -1 x274 -1 x275 -1 x276 -1 x277 -1 x278 -1 x279 -1 x280 -1 x281 -1 x282 -1 x283 -1 x284 -1 x285 -1 x286 -1 x287 -1 x288 -1 x289 -1 x290 -1 x291 >= -10;
+1 x274 +1 x275 +1 x276 +1 x277 +1 x278 +1 x279 +1 x280 +1 x281 +1 x282 +1 x283 +1 x284 +1 x285 +1 x286 +1 x287 +1 x288 +1 x289 +1 x290 +1 x291 +1 x292 >= 9;
-1 x274 -1 x275 -1 x276 -1 x277 -1 x278 -1 x279 -1 x280 -1 x281 -1 x282 -1 x283 -1 x284 -1 x285 -1 x286 -1 x287 -1 x288 -1 x289 -1 x290 -1 x291 -1 x292 >= -10;
+1 x275 +1 x276 +1 x277 +1 x278 +1 x279 +1 x280 +1 x281 +1 x282 +1 x283 +1 x284 +1 x285 +1 x286 +1 x287 +1 x288 +1 x289 +1 x290 +1 x291 +1 x292 +1 x293 >= 9;
-1 x275 -1 x276 -1 x277 -1 x278 -1 x279 -1 x280 -1 x281 -1 x282 -1 x283 -1 x284 -1 x285 -1 x286 -1 x287 -1 x288 -1 x289 -1 x290 -1 x291 -1 x292 -1 x293 >= -10;
+1 x276 +1 x277 +1 x278 +1 x279 +1 x280 +1 x281 +1 x282 +1 x283 +1 x284 +1 x285 +1 x286 +1 x287 +1 x288 +1 x289 +1 x290 +1 x291 +1 x292 +1 x293 +1 x294 >= 9;
-1 x276 -1 x277 -1 x278 -1 x279 -1 x280 -1 x281 -1 x282 -1 x283 -1 x284 -1 x285 -1 x286 -1 x287 -1 x288 -1 x289 -1 x290 -1 x291 -1 x292 -1 x293 -1 x294 >= -10;
+1 x277 +1 x278 +1 x279 +1 x280 +1 x281 +1 x282 +1 x283 +1 x284 +1 x285 +1 x286 +1 x287 +1 x288 +1 x289 +1 x290 +1 x291 +1 x292 +1 x293 +1 x294 +1 x295 >= 9;
-1 x277 -1 x278 -1 x279 -1 x280 -1 x281 -1 x282 -1 x283 -1 x284 -1 x285 -1 x286 -1 x287 -1 x288 -1 x289 -1 x290 -1 x291 -1 x292 -1 x293 -1 x294 -1 x295 >= -10;
+1 x278 +1 x279 +1 x280 +1 x281 +1 x282 +1 x283 +1 x284 +1 x285 +1 x286 +1 x287 +1 x288 +1 x289 +1 x290 +1 x291 +1 x292 +1 x293 +1 x294 +1 x295 +1 x296 >= 9;
-1 x278 -1 x279 -1 x280 -1 x281 -1 x282 -1 x283 -1 x284 -1 x285 -1 x286 -1 x287 -1 x288 -1 x289 -1 x290 -1 x291 -1 x292 -1 x293 -1 x294 -1 x295 -1 x296 >= -10;
+1 x279 +1 x280 +1 x281 +1 x282 +1 x283 +1 x284 +1 x285 +1 x286 +1 x287 +1 x288 +1 x289 +1 x290 +1 x291 +1 x292 +1 x293 +1 x294 +1 x295 +1 x296 +1 x297 >= 9;
-1 x279 -1 x280 -1 x281 -1 x282 -1 x283 -1 x284 -1 x285 -1 x286 -1 x287 -1 x288 -1 x289 -1 x290 -1 x291 -1 x292 -1 x293 -1 x294 -1 x295 -1 x296 -1 x297 >= -10;
+1 x280 +1 x281 +1 x282 +1 x283 +1 x284 +1 x285 +1 x286 +1 x287 +1 x288 +1 x289 +1 x290 +1 x291 +1 x292 +1 x293 +1 x294 +1 x295 +1 x296 +1 x297 +1 x298 >= 9;
-1 x280 -1 x281 -1 x282 -1 x283 -1 x284 -1 x285 -1 x286 -1 x287 -1 x288 -1 x289 -1 x290 -1 x291 -1 x292 -1 x293 -1 x294 -1 x295 -1 x296 -1 x297 -1 x298 >= -10;
+1 x281 +1 x282 +1 x283 +1 x284 +1 x285 +1 x286 +1 x287 +1 x288 +1 x289 +1 x290 +1 x291 +1 x292 +1 x293 +1 x294 +1 x295 +1 x296 +1 x297 +1 x298 +1 x299 >= 9;
-1 x281 -1 x282 -1 x283 -1 x284 -1 x285 -1 x286 -1 x287 -1 x288 -1 x289 -1 x290 -1 x291 -1 x292 -1 x293 -1 x294 -1 x295 -1 x296 -1 x297 -1 x298 -1 x299 >= -10;
+1 x282 +1 x283 +1 x284 +1 x285 +1 x286 +1 x287 +1 x288 +1 x289 +1 x290 +1 x291 +1 x292 +1 x293 +1 x294 +1 x295 +1 x296 +1 x297 +1 x298 +1 x299 +1 x300 >= 9;
-1 x282 -1 x283 -1 x284 -1 x285 -1 x286 -1 x287 -1 x288 -1 x289 -1 x290 -1 x291 -1 x292 -1 x293 -1 x294 -1 x295 -1 x296 -1 x297 -1 x298 -1 x299 -1 x300 >= -10;
+1 x283 +1 x284 +1 x285 +1 x286 +1 x287 +1 x288 +1 x289 +1 x290 +1 x291 +1 x292 +1 x293 +1 x294 +1 x295 +1 x296 +1 x297 +1 x298 +1 x299 +1 x300 +1 x301 >= 9;
-1 x283 -1 x284 -1 x285 -1 x286 -1 x287 -1 x288 -1 x289 -1 x290 -1 x291 -1 x292 -1 x293 -1 x294 -1 x295 -1 x296 -1 x297 -1 x298 -1 x299 -1 x300 -1 x301 >= -10;
+1 x284 +1 x285 +1 x286 +1 x287 +1 x288 +1 x289 +1 x290 +1 x291 +1 x292 +1 x293 +1 x294 +1 x295 +1 x296 +1 x297 +1 x298 +1 x299 +1 x300 +1 x301 +1 x302 >= 9;
-1 x284 -1 x285 -1 x286 -1 x287 -1 x288 -1 x289 -1 x290 -1 x291 -1 x292 -1 x293 -1 x294 -1 x295 -1 x296 -1 x297 -1 x298 -1 x299 -1 x300 -1 x301 -1 x302 >= -10;
+1 x285 +1 x286 +1 x287 +1 x288 +1 x289 +1 x290 +1 x291 +1 x292 +1 x293 +1 x294 +1 x295 +1 x296 +1 x297 +1 x298 +1 x299 +1 x300 +1 x301 +1 x302 +1 x303 >= 9;
-1 x285 -1 x286 -1 x287 -1 x288 -1 x289 -1 x290 -1 x291 -1 x292 -1 x293 -1 x294 -1 x295 -1 x296 -1 x297 -1 x298 -1 x299 -1 x300 -1 x301 -1 x302 -1 x303 >= -10;
+1 x286 +1 x287 +1 x288 +1 x289 +1 x290 +1 x291 +1 x292 +1 x293 +1 x294 +1 x295 +1 x296 +1 x297 +1 x298 +1 x299 +1 x300 +1 x301 +1 x302 +1 x303 +1 x304 >= 9;
-1 x286 -1 x287 -1 x288 -1 x289 -1 x290 -1 x291 -1 x292 -1 x293 -1 x294 -1 x295 -1 x296 -1 x297 -1 x298 -1 x299 -1 x300 -1 x301 -1 x302 -1 x303 -1 x304 >= -10;
+1 x287 +1 x288 +1 x289 +1 x290 +1 x291 +1 x292 +1 x293 +1 x294 +1 x295 +1 x296 +1 x297 +1 x298 +1 x299 +1 x300 +1 x301 +1 x302 +1 x303 +1 x304 +1 x305 >= 9;
-1 x287 -1 x288 -1 x289 -1 x290 -1 x291 -1 x292 -1 x293 -1 x294 -1 x295 -1 x296 -1 x297 -1 x298 -1 x299 -1 x300 -1 x301 -1 x302 -1 x303 -1 x304 -1 x305 >= -10;
+1 x288 +1 x289 +1 x290 +1 x291 +1 x292 +1 x293 +1 x294 +1 x295 +1 x296 +1 x297 +1 x298 +1 x299 +1 x300 +1 x301 +1 x302 +1 x303 +1 x304 +1 x305 +1 x306 >= 9;
-1 x288 -1 x289 -1 x290 -1 x291 -1 x292 -1 x293 -1 x294 -1 x295 -1 x296 -1 x297 -1 x298 -1 x299 -1 x300 -1 x301 -1 x302 -1 x303 -1 x304 -1 x305 -1 x306 >= -10;
+1 x289 +1 x290 +1 x291 +1 x292 +1 x293 +1 x294 +1 x295 +1 x296 +1 x297 +1 x298 +1 x299 +1 x300 +1 x301 +1 x302 +1 x303 +1 x304 +1 x305 +1 x306 +1 x307 >= 9;
-1 x289 -1 x290 -1 x291 -1 x292 -1 x293 -1 x294 -1 x295 -1 x296 -1 x297 -1 x298 -1 x299 -1 x300 -1 x301 -1 x302 -1 x303 -1 x304 -1 x305 -1 x306 -1 x307 >= -10;
+1 x290 +1 x291 +1 x292 +1 x293 +1 x294 +1 x295 +1 x296 +1 x297 +1 x298 +1 x299 +1 x300 +1 x301 +1 x302 +1 x303 +1 x304 +1 x305 +1 x306 +1 x307 +1 x308 >= 9;
-1 x290 -1 x291 -1 x292 -1 x293 -1 x294 -1 x295 -1 x296 -1 x297 -1 x298 -1 x299 -1 x300 -1 x301 -1 x302 -1 x303 -1 x304 -1 x305 -1 x306 -1 x307 -1 x308 >= -10;
+1 x291 +1 x292 +1 x293 +1 x294 +1 x295 +1 x296 +1 x297 +1 x298 +1 x299 +1 x300 +1 x301 +1 x302 +1 x303 +1 x304 +1 x305 +1 x306 +1 x307 +1 x308 +1 x309 >= 9;
-1 x291 -1 x292 -1 x293 -1 x294 -1 x295 -1 x296 -1 x297 -1 x298 -1 x299 -1 x300 -1 x301 -1 x302 -1 x303 -1 x304 -1 x305 -1 x306 -1 x307 -1 x308 -1 x309 >= -10;
+1 x292 +1 x293 +1 x294 +1 x295 +1 x296 +1 x297 +1 x298 +1 x299 +1 x300 +1 x301 +1 x302 +1 x303 +1 x304 +1 x305 +1 x306 +1 x307 +1 x308 +1 x309 +1 x310 >= 9;
-1 x292 -1 x293 -1 x294 -1 x295 -1 x296 -1 x297 -1 x298 -1 x299 -1 x300 -1 x301 -1 x302 -1 x303 -1 x304 -1 x305 -1 x306 -1 x307 -1 x308 -1 x309 -1 x310 >= -10;
+1 x293 +1 x294 +1 x295 +1 x296 +1 x297 +1 x298 +1 x299 +1 x300 +1 x301 +1 x302 +1 x303 +1 x304 +1 x305 +1 x306 +1 x307 +1 x308 +1 x309 +1 x310 +1 x311 >= 9;
-1 x293 -1 x294 -1 x295 -1 x296 -1 x297 -1 x298 -1 x299 -1 x300 -1 x301 -1 x302 -1 x303 -1 x304 -1 x305 -1 x306 -1 x307 -1 x308 -1 x309 -1 x310 -1 x311 >= -10;
+1 x294 +1 x295 +1 x296 +1 x297 +1 x298 +1 x299 +1 x300 +1 x301 +1 x302 +1 x303 +1 x304 +1 x305 +1 x306 +1 x307 +1 x308 +1 x309 +1 x310 +1 x311 +1 x312 >= 9;
-1 x294 -1 x295 -1 x296 -1 x297 -1 x298 -1 x299 -1 x300 -1 x301 -1 x302 -1 x303 -1 x304 -1 x305 -1 x306 -1 x307 -1 x308 -1 x309 -1 x310 -1 x311 -1 x312 >= -10;
+1 x295 +1 x296 +1 x297 +1 x298 +1 x299 +1 x300 +1 x301 +1 x302 +1 x303 +1 x304 +1 x305 +1 x306 +1 x307 +1 x308 +1 x309 +1 x310 +1 x311 +1 x312 +1 x313 >= 9;
-1 x295 -1 x296 -1 x297 -1 x298 -1 x299 -1 x300 -1 x301 -1 x302 -1 x303 -1 x304 -1 x305 -1 x306 -1 x307 -1 x308 -1 x309 -1 x310 -1 x311 -1 x312 -1 x313 >= -10;
+1 x296 +1 x297 +1 x298 +1 x299 +1 x300 +1 x301 +1 x302 +1 x303 +1 x304 +1 x305 +1 x306 +1 x307 +1 x308 +1 x309 +1 x310 +1 x311 +1 x312 +1 x313 +1 x314 >= 9;
-1 x296 -1 x297 -1 x298 -1 x299 -1 x300 -1 x301 -1 x302 -1 x303 -1 x304 -1 x305 -1 x306 -1 x307 -1 x308 -1 x309 -1 x310 -1 x311 -1 x312 -1 x313 -1 x314 >= -10;
+1 x297 +1 x298 +1 x299 +1 x300 +1 x301 +1 x302 +1 x303 +1 x304 +1 x305 +1 x306 +1 x307 +1 x308 +1 x309 +1 x310 +1 x311 +1 x312 +1 x313 +1 x314 +1 x315 >= 9;
-1 x297 -1 x298 -1 x299 -1 x300 -1 x301 -1 x302 -1 x303 -1 x304 -1 x305 -1 x306 -1 x307 -1 x308 -1 x309 -1 x310 -1 x311 -1 x312 -1 x313 -1 x314 -1 x315 >= -10;
+1 x298 +1 x299 +1 x300 +1 x301 +1 x302 +1 x303 +1 x304 +1 x305 +1 x306 +1 x307 +1 x308 +1 x309 +1 x310 +1 x311 +1 x312 +1 x313 +1 x314 +1 x315 +1 x316 >= 9;
-1 x298 -1 x299 -1 x300 -1 x301 -1 x302 -1 x303 -1 x304 -1 x305 -1 x306 -1 x307 -1 x308 -1 x309 -1 x310 -1 x311 -1 x312 -1 x313 -1 x314 -1 x315 -1 x316 >= -10;
+1 x299 +1 x300 +1 x301 +1 x302 +1 x303 +1 x304 +1 x305 +1 x306 +1 x307 +1 x308 +1 x309 +1 x310 +1 x311 +1 x312 +1 x313 +1 x314 +1 x315 +1 x316 +1 x317 >= 9;
-1 x299 -1 x300 -1 x301 -1 x302 -1 x303 -1 x304 -1 x305 -1 x306 -1 x307 -1 x308 -1 x309 -1 x310 -1 x311 -1 x312 -1 x313 -1 x314 -1 x315 -1 x316 -1 x317 >= -10;
+1 x300 +1 x301 +1 x302 +1 x303 +1 x304 +1 x305 +1 x306 +1 x307 +1 x308 +1 x309 +1 x310 +1 x311 +1 x312 +1 x313 +1 x314 +1 x315 +1 x316 +1 x317 +1 x318 >= 9;
-1 x300 -1 x301 -1 x302 -1 x303 -1 x304 -1 x305 -1 x306 -1 x307 -1 x308 -1 x309 -1 x310 -1 x311 -1 x312 -1 x313 -1 x314 -1 x315 -1 x316 -1 x317 -1 x318 >= -10;
+1 x301 +1 x302 +1 x303 +1 x304 +1 x305 +1 x306 +1 x307 +1 x308 +1 x309 +1 x310 +1 x311 +1 x312 +1 x313 +1 x314 +1 x315 +1 x316 +1 x317 +1 x318 +1 x319 >= 9;
-1 x301 -1 x302 -1 x303 -1 x304 -1 x305 -1 x306 -1 x307 -1 x308 -1 x309 -1 x310 -1 x311 -1 x312 -1 x313 -1 x314 -1 x315 -1 x316 -1 x317 -1 x318 -1 x319 >= -10;
+1 x302 +1 x303 +1 x304 +1 x305 +1 x306 +1 x307 +1 x308 +1 x309 +1 x310 +1 x311 +1 x312 +1 x313 +1 x314 +1 x315 +1 x316 +1 x317 +1 x318 +1 x319 +1 x320 >= 9;
-1 x302 -1 x303 -1 x304 -1 x305 -1 x306 -1 x307 -1 x308 -1 x309 -1 x310 -1 x311 -1 x312 -1 x313 -1 x314 -1 x315 -1 x316 -1 x317 -1 x318 -1 x319 -1 x320 >= -10;
+1 x303 +1 x304 +1 x305 +1 x306 +1 x307 +1 x308 +1 x309 +1 x310 +1 x311 +1 x312 +1 x313 +1 x314 +1 x315 +1 x316 +1 x317 +1 x318 +1 x319 +1 x320 +1 x321 >= 9;
-1 x303 -1 x304 -1 x305 -1 x306 -1 x307 -1 x308 -1 x309 -1 x310 -1 x311 -1 x312 -1 x313 -1 x314 -1 x315 -1 x316 -1 x317 -1 x318 -1 x319 -1 x320 -1 x321 >= -10;
+1 x304 +1 x305 +1 x306 +1 x307 +1 x308 +1 x309 +1 x310 +1 x311 +1 x312 +1 x313 +1 x314 +1 x315 +1 x316 +1 x317 +1 x318 +1 x319 +1 x320 +1 x321 +1 x322 >= 9;
-1 x304 -1 x305 -1 x306 -1 x307 -1 x308 -1 x309 -1 x310 -1 x311 -1 x312 -1 x313 -1 x314 -1 x315 -1 x316 -1 x317 -1 x318 -1 x319 -1 x320 -1 x321 -1 x322 >= -10;
+1 x305 +1 x306 +1 x307 +1 x308 +1 x309 +1 x310 +1 x311 +1 x312 +1 x313 +1 x314 +1 x315 +1 x316 +1 x317 +1 x318 +1 x319 +1 x320 +1 x321 +1 x322 +1 x323 >= 9;
-1 x305 -1 x306 -1 x307 -1 x308 -1 x309 -1 x310 -1 x311 -1 x312 -1 x313 -1 x314 -1 x315 -1 x316 -1 x317 -1 x318 -1 x319 -1 x320 -1 x321 -1 x322 -1 x323 >= -10;
+1 x306 +1 x307 +1 x308 +1 x309 +1 x310 +1 x311 +1 x312 +1 x313 +1 x314 +1 x315 +1 x316 +1 x317 +1 x318 +1 x319 +1 x320 +1 x321 +1 x322 +1 x323 +1 x324 >= 9;
-1 x306 -1 x307 -1 x308 -1 x309 -1 x310 -1 x311 -1 x312 -1 x313 -1 x314 -1 x315 -1 x316 -1 x317 -1 x318 -1 x319 -1 x320 -1 x321 -1 x322 -1 x323 -1 x324 >= -10;
+1 x307 +1 x308 +1 x309 +1 x310 +1 x311 +1 x312 +1 x313 +1 x314 +1 x315 +1 x316 +1 x317 +1 x318 +1 x319 +1 x320 +1 x321 +1 x322 +1 x323 +1 x324 +1 x325 >= 9;
-1 x307 -1 x308 -1 x309 -1 x310 -1 x311 -1 x312 -1 x313 -1 x314 -1 x315 -1 x316 -1 x317 -1 x318 -1 x319 -1 x320 -1 x321 -1 x322 -1 x323 -1 x324 -1 x325 >= -10;
+1 x308 +1 x309 +1 x310 +1 x311 +1 x312 +1 x313 +1 x314 +1 x315 +1 x316 +1 x317 +1 x318 +1 x319 +1 x320 +1 x321 +1 x322 +1 x323 +1 x324 +1 x325 +1 x326 >= 9;
-1 x308 -1 x309 -1 x310 -1 x311 -1 x312 -1 x313 -1 x314 -1 x315 -1 x316 -1 x317 -1 x318 -1 x319 -1 x320 -1 x321 -1 x322 -1 x323 -1 x324 -1 x325 -1 x326 >= -10;
+1 x309 +1 x310 +1 x311 +1 x312 +1 x313 +1 x314 +1 x315 +1 x316 +1 x317 +1 x318 +1 x319 +1 x320 +1 x321 +1 x322 +1 x323 +1 x324 +1 x325 +1 x326 +1 x327 >= 9;
-1 x309 -1 x310 -1 x311 -1 x312 -1 x313 -1 x314 -1 x315 -1 x316 -1 x317 -1 x318 -1 x319 -1 x320 -1 x321 -1 x322 -1 x323 -1 x324 -1 x325 -1 x326 -1 x327 >= -10;
+1 x310 +1 x311 +1 x312 +1 x313 +1 x314 +1 x315 +1 x316 +1 x317 +1 x318 +1 x319 +1 x320 +1 x321 +1 x322 +1 x323 +1 x324 +1 x325 +1 x326 +1 x327 +1 x328 >= 9;
-1 x310 -1 x311 -1 x312 -1 x313 -1 x314 -1 x315 -1 x316 -1 x317 -1 x318 -1 x319 -1 x320 -1 x321 -1 x322 -1 x323 -1 x324 -1 x325 -1 x326 -1 x327 -1 x328 >= -10;
+1 x311 +1 x312 +1 x313 +1 x314 +1 x315 +1 x316 +1 x317 +1 x318 +1 x319 +1 x320 +1 x321 +1 x322 +1 x323 +1 x324 +1 x325 +1 x326 +1 x327 +1 x328 +1 x329 >= 9;
-1 x311 -1 x312 -1 x313 -1 x314 -1 x315 -1 x316 -1 x317 -1 x318 -1 x319 -1 x320 -1 x321 -1 x322 -1 x323 -1 x324 -1 x325 -1 x326 -1 x327 -1 x328 -1 x329 >= -10;
+1 x312 +1 x313 +1 x314 +1 x315 +1 x316 +1 x317 +1 x318 +1 x319 +1 x320 +1 x321 +1 x322 +1 x323 +1 x324 +1 x325 +1 x326 +1 x327 +1 x328 +1 x329 +1 x330 >= 9;
-1 x312 -1 x313 -1 x314 -1 x315 -1 x316 -1 x317 -1 x318 -1 x319 -1 x320 -1 x321 -1 x322 -1 x323 -1 x324 -1 x325 -1 x326 -1 x327 -1 x328 -1 x329 -1 x330 >= -10;
+1 x313 +1 x314 +1 x315 +1 x316 +1 x317 +1 x318 +1 x319 +1 x320 +1 x321 +1 x322 +1 x323 +1 x324 +1 x325 +1 x326 +1 x327 +1 x328 +1 x329 +1 x330 +1 x331 >= 9;
-1 x313 -1 x314 -1 x315 -1 x316 -1 x317 -1 x318 -1 x319 -1 x320 -1 x321 -1 x322 -1 x323 -1 x324 -1 x325 -1 x326 -1 x327 -1 x328 -1 x329 -1 x330 -1 x331 >= -10;
+1 x314 +1 x315 +1 x316 +1 x317 +1 x318 +1 x319 +1 x320 +1 x321 +1 x322 +1 x323 +1 x324 +1 x325 +1 x326 +1 x327 +1 x328 +1 x329 +1 x330 +1 x331 +1 x332 >= 9;
-1 x314 -1 x315 -1 x316 -1 x317 -1 x318 -1 x319 -1 x320 -1 x321 -1 x322 -1 x323 -1 x324 -1 x325 -1 x326 -1 x327 -1 x328 -1 x329 -1 x330 -1 x331 -1 x332 >= -10;
+1 x315 +1 x316 +1 x317 +1 x318 +1 x319 +1 x320 +1 x321 +1 x322 +1 x323 +1 x324 +1 x325 +1 x326 +1 x327 +1 x328 +1 x329 +1 x330 +1 x331 +1 x332 +1 x333 >= 9;
-1 x315 -1 x316 -1 x317 -1 x318 -1 x319 -1 x320 -1 x321 -1 x322 -1 x323 -1 x324 -1 x325 -1 x326 -1 x327 -1 x328 -1 x329 -1 x330 -1 x331 -1 x332 -1 x333 >= -10;
+1 x316 +1 x317 +1 x318 +1 x319 +1 x320 +1 x321 +1 x322 +1 x323 +1 x324 +1 x325 +1 x326 +1 x327 +1 x328 +1 x329 +1 x330 +1 x331 +1 x332 +1 x333 +1 x334 >= 9;
-1 x316 -1 x317 -1 x318 -1 x319 -1 x320 -1 x321 -1 x322 -1 x323 -1 x324 -1 x325 -1 x326 -1 x327 -1 x328 -1 x329 -1 x330 -1 x331 -1 x332 -1 x333 -1 x334 >= -10;
+1 x317 +1 x318 +1 x319 +1 x320 +1 x321 +1 x322 +1 x323 +1 x324 +1 x325 +1 x326 +1 x327 +1 x328 +1 x329 +1 x330 +1 x331 +1 x332 +1 x333 +1 x334 +1 x335 >= 9;
-1 x317 -1 x318 -1 x319 -1 x320 -1 x321 -1 x322 -1 x323 -1 x324 -1 x325 -1 x326 -1 x327 -1 x328 -1 x329 -1 x330 -1 x331 -1 x332 -1 x333 -1 x334 -1 x335 >= -10;
+1 x318 +1 x319 +1 x320 +1 x321 +1 x322 +1 x323 +1 x324 +1 x325 +1 x326 +1 x327 +1 x328 +1 x329 +1 x330 +1 x331 +1 x332 +1 x333 +1 x334 +1 x335 +1 x336 >= 9;
-1 x318 -1 x319 -1 x320 -1 x321 -1 x322 -1 x323 -1 x324 -1 x325 -1 x326 -1 x327 -1 x328 -1 x329 -1 x330 -1 x331 -1 x332 -1 x333 -1 x334 -1 x335 -1 x336 >= -10;
+1 x319 +1 x320 +1 x321 +1 x322 +1 x323 +1 x324 +1 x325 +1 x326 +1 x327 +1 x328 +1 x329 +1 x330 +1 x331 +1 x332 +1 x333 +1 x334 +1 x335 +1 x336 +1 x337 >= 9;
-1 x319 -1 x320 -1 x321 -1 x322 -1 x323 -1 x324 -1 x325 -1 x326 -1 x327 -1 x328 -1 x329 -1 x330 -1 x331 -1 x332 -1 x333 -1 x334 -1 x335 -1 x336 -1 x337 >= -10;
+1 x320 +1 x321 +1 x322 +1 x323 +1 x324 +1 x325 +1 x326 +1 x327 +1 x328 +1 x329 +1 x330 +1 x331 +1 x332 +1 x333 +1 x334 +1 x335 +1 x336 +1 x337 +1 x338 >= 9;
-1 x320 -1 x321 -1 x322 -1 x323 -1 x324 -1 x325 -1 x326 -1 x327 -1 x328 -1 x329 -1 x330 -1 x331 -1 x332 -1 x333 -1 x334 -1 x335 -1 x336 -1 x337 -1 x338 >= -10;
+1 x321 +1 x322 +1 x323 +1 x324 +1 x325 +1 x326 +1 x327 +1 x328 +1 x329 +1 x330 +1 x331 +1 x332 +1 x333 +1 x334 +1 x335 +1 x336 +1 x337 +1 x338 +1 x339 >= 9;
-1 x321 -1 x322 -1 x323 -1 x324 -1 x325 -1 x326 -1 x327 -1 x328 -1 x329 -1 x330 -1 x331 -1 x332 -1 x333 -1 x334 -1 x335 -1 x336 -1 x337 -1 x338 -1 x339 >= -10;
+1 x322 +1 x323 +1 x324 +1 x325 +1 x326 +1 x327 +1 x328 +1 x329 +1 x330 +1 x331 +1 x332 +1 x333 +1 x334 +1 x335 +1 x336 +1 x337 +1 x338 +1 x339 +1 x340 >= 9;
-1 x322 -1 x323 -1 x324 -1 x325 -1 x326 -1 x327 -1 x328 -1 x329 -1 x330 -1 x331 -1 x332 -1 x333 -1 x334 -1 x335 -1 x336 -1 x337 -1 x338 -1 x339 -1 x340 >= -10;
+1 x323 +1 x324 +1 x325 +1 x326 +1 x327 +1 x328 +1 x329 +1 x330 +1 x331 +1 x332 +1 x333 +1 x334 +1 x335 +1 x336 +1 x337 +1 x338 +1 x339 +1 x340 +1 x341 >= 9;
-1 x323 -1 x324 -1 x325 -1 x326 -1 x327 -1 x328 -1 x329 -1 x330 -1 x331 -1 x332 -1 x333 -1 x334 -1 x335 -1 x336 -1 x337 -1 x338 -1 x339 -1 x340 -1 x341 >= -10;
+1 x324 +1 x325 +1 x326 +1 x327 +1 x328 +1 x329 +1 x330 +1 x331 +1 x332 +1 x333 +1 x334 +1 x335 +1 x336 +1 x337 +1 x338 +1 x339 +1 x340 +1 x341 +1 x342 >= 9;
-1 x324 -1 x325 -1 x326 -1 x327 -1 x328 -1 x329 -1 x330 -1 x331 -1 x332 -1 x333 -1 x334 -1 x335 -1 x336 -1 x337 -1 x338 -1 x339 -1 x340 -1 x341 -1 x342 >= -10;
+1 x325 +1 x326 +1 x327 +1 x328 +1 x329 +1 x330 +1 x331 +1 x332 +1 x333 +1 x334 +1 x335 +1 x336 +1 x337 +1 x338 +1 x339 +1 x340 +1 x341 +1 x342 +1 x343 >= 9;
-1 x325 -1 x326 -1 x327 -1 x328 -1 x329 -1 x330 -1 x331 -1 x332 -1 x333 -1 x334 -1 x335 -1 x336 -1 x337 -1 x338 -1 x339 -1 x340 -1 x341 -1 x342 -1 x343 >= -10;
+1 x326 +1 x327 +1 x328 +1 x329 +1 x330 +1 x331 +1 x332 +1 x333 +1 x334 +1 x335 +1 x336 +1 x337 +1 x338 +1 x339 +1 x340 +1 x341 +1 x342 +1 x343 +1 x344 >= 9;
-1 x326 -1 x327 -1 x328 -1 x329 -1 x330 -1 x331 -1 x332 -1 x333 -1 x334 -1 x335 -1 x336 -1 x337 -1 x338 -1 x339 -1 x340 -1 x341 -1 x342 -1 x343 -1 x344 >= -10;
+1 x1 +1 x3 +1 x5 +1 x7 +1 x9 +1 x11 +1 x13 +1 x15 +1 x17 +1 x19 +1 x21 +1 x23 +1 x25 +1 x27 +1 x29 +1 x31 +1 x33 +1 x35 +1 x37 >= 9;
-1 x1 -1 x3 -1 x5 -1 x7 -1 x9 -1 x11 -1 x13 -1 x15 -1 x17 -1 x19 -1 x21 -1 x23 -1 x25 -1 x27 -1 x29 -1 x31 -1 x33 -1 x35 -1 x37 >= -10;
+1 x2 +1 x4 +1 x6 +1 x8 +1 x10 +1 x12 +1 x14 +1 x16 +1 x18 +1 x20 +1 x22 +1 x24 +1 x26 +1 x28 +1 x30 +1 x32 +1 x34 +1 x36 +1 x38 >= 9;
-1 x2 -1 x4 -1 x6 -1 x8 -1 x10 -1 x12 -1 x14 -1 x16 -1 x18 -1 x20 -1 x22 -1 x24 -1 x26 -1 x28 -1 x30 -1 x32 -1 x34 -1 x36 -1 x38 >= -10;
+1 x3 +1 x5 +1 x7 +1 x9 +1 x11 +1 x13 +1 x15 +1 x17 +1 x19 +1 x21 +1 x23 +1 x25 +1 x27 +1 x29 +1 x31 +1 x33 +1 x35 +1 x37 +1 x39 >= 9;
-1 x3 -1 x5 -1 x7 -1 x9 -1 x11 -1 x13 -1 x15 -1 x17 -1 x19 -1 x21 -1 x23 -1 x25 -1 x27 -1 x29 -1 x31 -1 x33 -1 x35 -1 x37 -1 x39 >= -10;
+1 x4 +1 x6 +1 x8 +1 x10 +1 x12 +1 x14 +1 x16 +1 x18 +1 x20 +1 x22 +1 x24 +1 x26 +1 x28 +1 x30 +1 x32 +1 x34 +1 x36 +1 x38 +1 x40 >= 9;
-1 x4 -1 x6 -1 x8 -1 x10 -1 x12 -1 x14 -1 x16 -1 x18 -1 x20 -1 x22 -1 x24 -1 x26 -1 x28 -1 x30 -1 x32 -1 x34 -1 x36 -1 x38 -1 x40 >= -10;
+1 x5 +1 x7 +1 x9 +1 x11 +1 x13 +1 x15 +1 x17 +1 x19 +1 x21 +1 x23 +1 x25 +1 x27 +1 x29 +1 x31 +1 x33 +1 x35 +1 x37 +1 x39 +1 x41 >= 9;
-1 x5 -1 x7 -1 x9 -1 x11 -1 x13 -1 x15 -1 x17 -1 x19 -1 x21 -1 x23 -1 x25 -1 x27 -1 x29 -1 x31 -1 x33 -1 x35 -1 x37 -1 x39 -1 x41 >= -10;
+1 x6 +1 x8 +1 x10 +1 x12 +1 x14 +1 x16 +1 x18 +1 x20 +1 x22 +1 x24 +1 x26 +1 x28 +1 x30 +1 x32 +1 x34 +1 x36 +1 x38 +1 x40 +1 x42 >= 9;
-1 x6 -1 x8 -1 x10 -1 x12 -1 x14 -1 x16 -1 x18 -1 x20 -1 x22 -1 x24 -1 x26 -1 x28 -1 x30 -1 x32 -1 x34 -1 x36 -1 x38 -1 x40 -1 x42 >= -10;
+1 x7 +1 x9 +1 x11 +1 x13 +1 x15 +1 x17 +1 x19 +1 x21 +1 x23 +1 x25 +1 x27 +1 x29 +1 x31 +1 x33 +1 x35 +1 x37 +1 x39 +1 x41 +1 x43 >= 9;
-1 x7 -1 x9 -1 x11 -1 x13 -1 x15 -1 x17 -1 x19 -1 x21 -1 x23 -1 x25 -1 x27 -1 x29 -1 x31 -1 x33 -1 x35 -1 x37 -1 x39 -1 x41 -1 x43 >= -10;
+1 x8 +1 x10 +1 x12 +1 x14 +1 x16 +1 x18 +1 x20 +1 x22 +1 x24 +1 x26 +1 x28 +1 x30 +1 x32 +1 x34 +1 x36 +1 x38 +1 x40 +1 x42 +1 x44 >= 9;
-1 x8 -1 x10 -1 x12 -1 x14 -1 x16 -1 x18 -1 x20 -1 x22 -1 x24 -1 x26 -1 x28 -1 x30 -1 x32 -1 x34 -1 x36 -1 x38 -1 x40 -1 x42 -1 x44 >= -10;
+1 x9 +1 x11 +1 x13 +1 x15 +1 x17 +1 x19 +1 x21 +1 x23 +1 x25 +1 x27 +1 x29 +1 x31 +1 x33 +1 x35 +1 x37 +1 x39 +1 x41 +1 x43 +1 x45 >= 9;
-1 x9 -1 x11 -1 x13 -1 x15 -1 x17 -1 x19 -1 x21 -1 x23 -1 x25 -1 x27 -1 x29 -1 x31 -1 x33 -1 x35 -1 x37 -1 x39 -1 x41 -1 x43 -1 x45 >= -10;
+1 x10 +1 x12 +1 x14 +1 x16 +1 x18 +1 x20 +1 x22 +1 x24 +1 x26 +1 x28 +1 x30 +1 x32 +1 x34 +1 x36 +1 x38 +1 x40 +1 x42 +1 x44 +1 x46 >= 9;
-1 x10 -1 x12 -1 x14 -1 x16 -1 x18 -1 x20 -1 x22 -1 x24 -1 x26 -1 x28 -1 x30 -1 x32 -1 x34 -1 x36 -1 x38 -1 x40 -1 x42 -1 x44 -1 x46 >= -10;
+1 x11 +1 x13 +1 x15 +1 x17 +1 x19 +1 x21 +1 x23 +1 x25 +1 x27 +1 x29 +1 x31 +1 x33 +1 x35 +1 x37 +1 x39 +1 x41 +1 x43 +1 x45 +1 x47 >= 9;
-1 x11 -1 x13 -1 x15 -1 x17 -1 x19 -1 x21 -1 x23 -1 x25 -1 x27 -1 x29 -1 x31 -1 x33 -1 x35 -1 x37 -1 x39 -1 x41 -1 x43 -1 x45 -1 x47 >= -10;
+1 x12 +1 x14 +1 x16 +1 x18 +1 x20 +1 x22 +1 x24 +1 x26 +1 x28 +1 x30 +1 x32 +1 x34 +1 x36 +1 x38 +1 x40 +1 x42 +1 x44 +1 x46 +1 x48 >= 9;
-1 x12 -1 x14 -1 x16 -1 x18 -1 x20 -1 x22 -1 x24 -1 x26 -1 x28 -1 x30 -1 x32 -1 x34 -1 x36 -1 x38 -1 x40 -1 x42 -1 x44 -1 x46 -1 x48 >= -10;
+1 x13 +1 x15 +1 x17 +1 x19 +1 x21 +1 x23 +1 x25 +1 x27 +1 x29 +1 x31 +1 x33 +1 x35 +1 x37 +1 x39 +1 x41 +1 x43 +1 x45 +1 x47 +1 x49 >= 9;
-1 x13 -1 x15 -1 x17 -1 x19 -1 x21 -1 x23 -1 x25 -1 x27 -1 x29 -1 x31 -1 x33 -1 x35 -1 x37 -1 x39 -1 x41 -1 x43 -1 x45 -1 x47 -1 x49 >= -10;
+1 x14 +1 x16 +1 x18 +1 x20 +1 x22 +1 x24 +1 x26 +1 x28 +1 x30 +1 x32 +1 x34 +1 x36 +1 x38 +1 x40 +1 x42 +1 x44 +1 x46 +1 x48 +1 x50 >= 9;
-1 x14 -1 x16 -1 x18 -1 x20 -1 x22 -1 x24 -1 x26 -1 x28 -1 x30 -1 x32 -1 x34 -1 x36 -1 x38 -1 x40 -1 x42 -1 x44 -1 x46 -1 x48 -1 x50 >= -10;
+1 x15 +1 x17 +1 x19 +1 x21 +1 x23 +1 x25 +1 x27 +1 x29 +1 x31 +1 x33 +1 x35 +1 x37 +1 x39 +1 x41 +1 x43 +1 x45 +1 x47 +1 x49 +1 x51 >= 9;
-1 x15 -1 x17 -1 x19 -1 x21 -1 x23 -1 x25 -1 x27 -1 x29 -1 x31 -1 x33 -1 x35 -1 x37 -1 x39 -1 x41 -1 x43 -1 x45 -1 x47 -1 x49 -1 x51 >= -10;
+1 x16 +1 x18 +1 x20 +1 x22 +1 x24 +1 x26 +1 x28 +1 x30 +1 x32 +1 x34 +1 x36 +1 x38 +1 x40 +1 x42 +1 x44 +1 x46 +1 x48 +1 x50 +1 x52 >= 9;
-1 x16 -1 x18 -1 x20 -1 x22 -1 x24 -1 x26 -1 x28 -1 x30 -1 x32 -1 x34 -1 x36 -1 x38 -1 x40 -1 x42 -1 x44 -1 x46 -1 x48 -1 x50 -1 x52 >= -10;
+1 x17 +1 x19 +1 x21 +1 x23 +1 x25 +1 x27 +1 x29 +1 x31 +1 x33 +1 x35 +1 x37 +1 x39 +1 x41 +1 x43 +1 x45 +1 x47 +1 x49 +1 x51 +1 x53 >= 9;
-1 x17 -1 x19 -1 x21 -1 x23 -1 x25 -1 x27 -1 x29 -1 x31 -1 x33 -1 x35 -1 x37 -1 x39 -1 x41 -1 x43 -1 x45 -1 x47 -1 x49 -1 x51 -1 x53 >= -10;
+1 x18 +1 x20 +1 x22 +1 x24 +1 x26 +1 x28 +1 x30 +1 x32 +1 x34 +1 x36 +1 x38 +1 x40 +1 x42 +1 x44 +1 x46 +1 x48 +1 x50 +1 x52 +1 x54 >= 9;
-1 x18 -1 x20 -1 x22 -1 x24 -1 x26 -1 x28 -1 x30 -1 x32 -1 x34 -1 x36 -1 x38 -1 x40 -1 x42 -1 x44 -1 x46 -1 x48 -1 x50 -1 x52 -1 x54 >= -10;
+1 x19 +1 x21 +1 x23 +1 x25 +1 x27 +1 x29 +1 x31 +1 x33 +1 x35 +1 x37 +1 x39 +1 x41 +1 x43 +1 x45 +1 x47 +1 x49 +1 x51 +1 x53 +1 x55 >= 9;
-1 x19 -1 x21 -1 x23 -1 x25 -1 x27 -1 x29 -1 x31 -1 x33 -1 x35 -1 x37 -1 x39 -1 x41 -1 x43 -1 x45 -1 x47 -1 x49 -1 x51 -1 x53 -1 x55 >= -10;
+1 x20 +1 x22 +1 x24 +1 x26 +1 x28 +1 x30 +1 x32 +1 x34 +1 x36 +1 x38 +1 x40 +1 x42 +1 x44 +1 x46 +1 x48 +1 x50 +1 x52 +1 x54 +1 x56 >= 9;
-1 x20 -1 x22 -1 x24 -1 x26 -1 x28 -1 x30 -1 x32 -1 x34 -1 x36 -1 x38 -1 x40 -1 x42 -1 x44 -1 x46 -1 x48 -1 x50 -1 x52 -1 x54 -1 x56 >= -10;
+1 x21 +1 x23 +1 x25 +1 x27 +1 x29 +1 x31 +1 x33 +1 x35 +1 x37 +1 x39 +1 x41 +1 x43 +1 x45 +1 x47 +1 x49 +1 x51 +1 x53 +1 x55 +1 x57 >= 9;
-1 x21 -1 x23 -1 x25 -1 x27 -1 x29 -1 x31 -1 x33 -1 x35 -1 x37 -1 x39 -1 x41 -1 x43 -1 x45 -1 x47 -1 x49 -1 x51 -1 x53 -1 x55 -1 x57 >= -10;
+1 x22 +1 x24 +1 x26 +1 x28 +1 x30 +1 x32 +1 x34 +1 x36 +1 x38 +1 x40 +1 x42 +1 x44 +1 x46 +1 x48 +1 x50 +1 x52 +1 x54 +1 x56 +1 x58 >= 9;
-1 x22 -1 x24 -1 x26 -1 x28 -1 x30 -1 x32 -1 x34 -1 x36 -1 x38 -1 x40 -1 x42 -1 x44 -1 x46 -1 x48 -1 x50 -1 x52 -1 x54 -1 x56 -1 x58 >= -10;
+1 x23 +1 x25 +1 x27 +1 x29 +1 x31 +1 x33 +1 x35 +1 x37 +1 x39 +1 x41 +1 x43 +1 x45 +1 x47 +1 x49 +1 x51 +1 x53 +1 x55 +1 x57 +1 x59 >= 9;
-1 x23 -1 x25 -1 x27 -1 x29 -1 x31 -1 x33 -1 x35 -1 x37 -1 x39 -1 x41 -1 x43 -1 x45 -1 x47 -1 x49 -1 x51 -1 x53 -1 x55 -1 x57 -1 x59 >= -10;
+1 x24 +1 x26 +1 x28 +1 x30 +1 x32 +1 x34 +1 x36 +1 x38 +1 x40 +1 x42 +1 x44 +1 x46 +1 x48 +1 x50 +1 x52 +1 x54 +1 x56 +1 x58 +1 x60 >= 9;
-1 x24 -1 x26 -1 x28 -1 x30 -1 x32 -1 x34 -1 x36 -1 x38 -1 x40 -1 x42 -1 x44 -1 x46 -1 x48 -1 x50 -1 x52 -1 x54 -1 x56 -1 x58 -1 x60 >= -10;
+1 x25 +1 x27 +1 x29 +1 x31 +1 x33 +1 x35 +1 x37 +1 x39 +1 x41 +1 x43 +1 x45 +1 x47 +1 x49 +1 x51 +1 x53 +1 x55 +1 x57 +1 x59 +1 x61 >= 9;
-1 x25 -1 x27 -1 x29 -1 x31 -1 x33 -1 x35 -1 x37 -1 x39 -1 x41 -1 x43 -1 x45 -1 x47 -1 x49 -1 x51 -1 x53 -1 x55 -1 x57 -1 x59 -1 x61 >= -10;
+1 x26 +1 x28 +1 x30 +1 x32 +1 x34 +1 x36 +1 x38 +1 x40 +1 x42 +1 x44 +1 x46 +1 x48 +1 x50 +1 x52 +1 x54 +1 x56 +1 x58 +1 x60 +1 x62 >= 9;
-1 x26 -1 x28 -1 x30 -1 x32 -1 x34 -1 x36 -1 x38 -1 x40 -1 x42 -1 x44 -1 x46 -1 x48 -1 x50 -1 x52 -1 x54 -1 x56 -1 x58 -1 x60 -1 x62 >= -10;
+1 x27 +1 x29 +1 x31 +1 x33 +1 x35 +1 x37 +1 x39 +1 x41 +1 x43 +1 x45 +1 x47 +1 x49 +1 x51 +1 x53 +1 x55 +1 x57 +1 x59 +1 x61 +1 x63 >= 9;
-1 x27 -1 x29 -1 x31 -1 x33 -1 x35 -1 x37 -1 x39 -1 x41 -1 x43 -1 x45 -1 x47 -1 x49 -1 x51 -1 x53 -1 x55 -1 x57 -1 x59 -1 x61 -1 x63 >= -10;
+1 x28 +1 x30 +1 x32 +1 x34 +1 x36 +1 x38 +1 x40 +1 x42 +1 x44 +1 x46 +1 x48 +1 x50 +1 x52 +1 x54 +1 x56 +1 x58 +1 x60 +1 x62 +1 x64 >= 9;
-1 x28 -1 x30 -1 x32 -1 x34 -1 x36 -1 x38 -1 x40 -1 x42 -1 x44 -1 x46 -1 x48 -1 x50 -1 x52 -1 x54 -1 x56 -1 x58 -1 x60 -1 x62 -1 x64 >= -10;
+1 x29 +1 x31 +1 x33 +1 x35 +1 x37 +1 x39 +1 x41 +1 x43 +1 x45 +1 x47 +1 x49 +1 x51 +1 x53 +1 x55 +1 x57 +1 x59 +1 x61 +1 x63 +1 x65 >= 9;
-1 x29 -1 x31 -1 x33 -1 x35 -1 x37 -1 x39 -1 x41 -1 x43 -1 x45 -1 x47 -1 x49 -1 x51 -1 x53 -1 x55 -1 x57 -1 x59 -1 x61 -1 x63 -1 x65 >= -10;
+1 x30 +1 x32 +1 x34 +1 x36 +1 x38 +1 x40 +1 x42 +1 x44 +1 x46 +1 x48 +1 x50 +1 x52 +1 x54 +1 x56 +1 x58 +1 x60 +1 x62 +1 x64 +1 x66 >= 9;
-1 x30 -1 x32 -1 x34 -1 x36 -1 x38 -1 x40 -1 x42 -1 x44 -1 x46 -1 x48 -1 x50 -1 x52 -1 x54 -1 x56 -1 x58 -1 x60 -1 x62 -1 x64 -1 x66 >= -10;
+1 x31 +1 x33 +1 x35 +1 x37 +1 x39 +1 x41 +1 x43 +1 x45 +1 x47 +1 x49 +1 x51 +1 x53 +1 x55 +1 x57 +1 x59 +1 x61 +1 x63 +1 x65 +1 x67 >= 9;
-1 x31 -1 x33 -1 x35 -1 x37 -1 x39 -1 x41 -1 x43 -1 x45 -1 x47 -1 x49 -1 x51 -1 x53 -1 x55 -1 x57 -1 x59 -1 x61 -1 x63 -1 x65 -1 x67 >= -10;
+1 x32 +1 x34 +1 x36 +1 x38 +1 x40 +1 x42 +1 x44 +1 x46 +1 x48 +1 x50 +1 x52 +1 x54 +1 x56 +1 x58 +1 x60 +1 x62 +1 x64 +1 x66 +1 x68 >= 9;
-1 x32 -1 x34 -1 x36 -1 x38 -1 x40 -1 x42 -1 x44 -1 x46 -1 x48 -1 x50 -1 x52 -1 x54 -1 x56 -1 x58 -1 x60 -1 x62 -1 x64 -1 x66 -1 x68 >= -10;
+1 x33 +1 x35 +1 x37 +1 x39 +1 x41 +1 x43 +1 x45 +1 x47 +1 x49 +1 x51 +1 x53 +1 x55 +1 x57 +1 x59 +1 x61 +1 x63 +1 x65 +1 x67 +1 x69 >= 9;
-1 x33 -1 x35 -1 x37 -1 x39 -1 x41 -1 x43 -1 x45 -1 x47 -1 x49 -1 x51 -1 x53 -1 x55 -1 x57 -1 x59 -1 x61 -1 x63 -1 x65 -1 x67 -1 x69 >= -10;
+1 x34 +1 x36 +1 x38 +1 x40 +1 x42 +1 x44 +1 x46 +1 x48 +1 x50 +1 x52 +1 x54 +1 x56 +1 x58 +1 x60 +1 x62 +1 x64 +1 x66 +1 x68 +1 x70 >= 9;
-1 x34 -1 x36 -1 x38 -1 x40 -1 x42 -1 x44 -1 x46 -1 x48 -1 x50 -1 x52 -1 x54 -1 x56 -1 x58 -1 x60 -1 x62 -1 x64 -1 x66 -1 x68 -1 x70 >= -10;
+1 x35 +1 x37 +1 x39 +1 x41 +1 x43 +1 x45 +1 x47 +1 x49 +1 x51 +1 x53 +1 x55 +1 x57 +1 x59 +1 x61 +1 x63 +1 x65 +1 x67 +1 x69 +1 x71 >= 9;
-1 x35 -1 x37 -1 x39 -1 x41 -1 x43 -1 x45 -1 x47 -1 x49 -1 x51 -1 x53 -1 x55 -1 x57 -1 x59 -1 x61 -1 x63 -1 x65 -1 x67 -1 x69 -1 x71 >= -10;
+1 x36 +1 x38 +1 x40 +1 x42 +1 x44 +1 x46 +1 x48 +1 x50 +1 x52 +1 x54 +1 x56 +1 x58 +1 x60 +1 x62 +1 x64 +1 x66 +1 x68 +1 x70 +1 x72 >= 9;
-1 x36 -1 x38 -1 x40 -1 x42 -1 x44 -1 x46 -1 x48 -1 x50 -1 x52 -1 x54 -1 x56 -1 x58 -1 x60 -1 x62 -1 x64 -1 x66 -1 x68 -1 x70 -1 x72 >= -10;
+1 x37 +1 x39 +1 x41 +1 x43 +1 x45 +1 x47 +1 x49 +1 x51 +1 x53 +1 x55 +1 x57 +1 x59 +1 x61 +1 x63 +1 x65 +1 x67 +1 x69 +1 x71 +1 x73 >= 9;
-1 x37 -1 x39 -1 x41 -1 x43 -1 x45 -1 x47 -1 x49 -1 x51 -1 x53 -1 x55 -1 x57 -1 x59 -1 x61 -1 x63 -1 x65 -1 x67 -1 x69 -1 x71 -1 x73 >= -10;
+1 x38 +1 x40 +1 x42 +1 x44 +1 x46 +1 x48 +1 x50 +1 x52 +1 x54 +1 x56 +1 x58 +1 x60 +1 x62 +1 x64 +1 x66 +1 x68 +1 x70 +1 x72 +1 x74 >= 9;
-1 x38 -1 x40 -1 x42 -1 x44 -1 x46 -1 x48 -1 x50 -1 x52 -1 x54 -1 x56 -1 x58 -1 x60 -1 x62 -1 x64 -1 x66 -1 x68 -1 x70 -1 x72 -1 x74 >= -10;
+1 x39 +1 x41 +1 x43 +1 x45 +1 x47 +1 x49 +1 x51 +1 x53 +1 x55 +1 x57 +1 x59 +1 x61 +1 x63 +1 x65 +1 x67 +1 x69 +1 x71 +1 x73 +1 x75 >= 9;
-1 x39 -1 x41 -1 x43 -1 x45 -1 x47 -1 x49 -1 x51 -1 x53 -1 x55 -1 x57 -1 x59 -1 x61 -1 x63 -1 x65 -1 x67 -1 x69 -1 x71 -1 x73 -1 x75 >= -10;
+1 x40 +1 x42 +1 x44 +1 x46 +1 x48 +1 x50 +1 x52 +1 x54 +1 x56 +1 x58 +1 x60 +1 x62 +1 x64 +1 x66 +1 x68 +1 x70 +1 x72 +1 x74 +1 x76 >= 9;
-1 x40 -1 x42 -1 x44 -1 x46 -1 x48 -1 x50 -1 x52 -1 x54 -1 x56 -1 x58 -1 x60 -1 x62 -1 x64 -1 x66 -1 x68 -1 x70 -1 x72 -1 x74 -1 x76 >= -10;
+1 x41 +1 x43 +1 x45 +1 x47 +1 x49 +1 x51 +1 x53 +1 x55 +1 x57 +1 x59 +1 x61 +1 x63 +1 x65 +1 x67 +1 x69 +1 x71 +1 x73 +1 x75 +1 x77 >= 9;
-1 x41 -1 x43 -1 x45 -1 x47 -1 x49 -1 x51 -1 x53 -1 x55 -1 x57 -1 x59 -1 x61 -1 x63 -1 x65 -1 x67 -1 x69 -1 x71 -1 x73 -1 x75 -1 x77 >= -10;
+1 x42 +1 x44 +1 x46 +1 x48 +1 x50 +1 x52 +1 x54 +1 x56 +1 x58 +1 x60 +1 x62 +1 x64 +1 x66 +1 x68 +1 x70 +1 x72 +1 x74 +1 x76 +1 x78 >= 9;
-1 x42 -1 x44 -1 x46 -1 x48 -1 x50 -1 x52 -1 x54 -1 x56 -1 x58 -1 x60 -1 x62 -1 x64 -1 x66 -1 x68 -1 x70 -1 x72 -1 x74 -1 x76 -1 x78 >= -10;
+1 x43 +1 x45 +1 x47 +1 x49 +1 x51 +1 x53 +1 x55 +1 x57 +1 x59 +1 x61 +1 x63 +1 x65 +1 x67 +1 x69 +1 x71 +1 x73 +1 x75 +1 x77 +1 x79 >= 9;
-1 x43 -1 x45 -1 x47 -1 x49 -1 x51 -1 x53 -1 x55 -1 x57 -1 x59 -1 x61 -1 x63 -1 x65 -1 x67 -1 x69 -1 x71 -1 x73 -1 x75 -1 x77 -1 x79 >= -10;
+1 x44 +1 x46 +1 x48 +1 x50 +1 x52 +1 x54 +1 x56 +1 x58 +1 x60 +1 x62 +1 x64 +1 x66 +1 x68 +1 x70 +1 x72 +1 x74 +1 x76 +1 x78 +1 x80 >= 9;
-1 x44 -1 x46 -1 x48 -1 x50 -1 x52 -1 x54 -1 x56 -1 x58 -1 x60 -1 x62 -1 x64 -1 x66 -1 x68 -1 x70 -1 x72 -1 x74 -1 x76 -1 x78 -1 x80 >= -10;
+1 x45 +1 x47 +1 x49 +1 x51 +1 x53 +1 x55 +1 x57 +1 x59 +1 x61 +1 x63 +1 x65 +1 x67 +1 x69 +1 x71 +1 x73 +1 x75 +1 x77 +1 x79 +1 x81 >= 9;
-1 x45 -1 x47 -1 x49 -1 x51 -1 x53 -1 x55 -1 x57 -1 x59 -1 x61 -1 x63 -1 x65 -1 x67 -1 x69 -1 x71 -1 x73 -1 x75 -1 x77 -1 x79 -1 x81 >= -10;
+1 x46 +1 x48 +1 x50 +1 x52 +1 x54 +1 x56 +1 x58 +1 x60 +1 x62 +1 x64 +1 x66 +1 x68 +1 x70 +1 x72 +1 x74 +1 x76 +1 x78 +1 x80 +1 x82 >= 9;
-1 x46 -1 x48 -1 x50 -1 x52 -1 x54 -1 x56 -1 x58 -1 x60 -1 x62 -1 x64 -1 x66 -1 x68 -1 x70 -1 x72 -1 x74 -1 x76 -1 x78 -1 x80 -1 x82 >= -10;
+1 x47 +1 x49 +1 x51 +1 x53 +1 x55 +1 x57 +1 x59 +1 x61 +1 x63 +1 x65 +1 x67 +1 x69 +1 x71 +1 x73 +1 x75 +1 x77 +1 x79 +1 x81 +1 x83 >= 9;
-1 x47 -1 x49 -1 x51 -1 x53 -1 x55 -1 x57 -1 x59 -1 x61 -1 x63 -1 x65 -1 x67 -1 x69 -1 x71 -1 x73 -1 x75 -1 x77 -1 x79 -1 x81 -1 x83 >= -10;
+1 x48 +1 x50 +1 x52 +1 x54 +1 x56 +1 x58 +1 x60 +1 x62 +1 x64 +1 x66 +1 x68 +1 x70 +1 x72 +1 x74 +1 x76 +1 x78 +1 x80 +1 x82 +1 x84 >= 9;
-1 x48 -1 x50 -1 x52 -1 x54 -1 x56 -1 x58 -1 x60 -1 x62 -1 x64 -1 x66 -1 x68 -1 x70 -1 x72 -1 x74 -1 x76 -1 x78 -1 x80 -1 x82 -1 x84 >= -10;
+1 x49 +1 x51 +1 x53 +1 x55 +1 x57 +1 x59 +1 x61 +1 x63 +1 x65 +1 x67 +1 x69 +1 x71 +1 x73 +1 x75 +1 x77 +1 x79 +1 x81 +1 x83 +1 x85 >= 9;
-1 x49 -1 x51 -1 x53 -1 x55 -1 x57 -1 x59 -1 x61 -1 x63 -1 x65 -1 x67 -1 x69 -1 x71 -1 x73 -1 x75 -1 x77 -1 x79 -1 x81 -1 x83 -1 x85 >= -10;
+1 x50 +1 x52 +1 x54 +1 x56 +1 x58 +1 x60 +1 x62 +1 x64 +1 x66 +1 x68 +1 x70 +1 x72 +1 x74 +1 x76 +1 x78 +1 x80 +1 x82 +1 x84 +1 x86 >= 9;
-1 x50 -1 x52 -1 x54 -1 x56 -1 x58 -1 x60 -1 x62 -1 x64 -1 x66 -1 x68 -1 x70 -1 x72 -1 x74 -1 x76 -1 x78 -1 x80 -1 x82 -1 x84 -1 x86 >= -10;
+1 x51 +1 x53 +1 x55 +1 x57 +1 x59 +1 x61 +1 x63 +1 x65 +1 x67 +1 x69 +1 x71 +1 x73 +1 x75 +1 x77 +1 x79 +1 x81 +1 x83 +1 x85 +1 x87 >= 9;
-1 x51 -1 x53 -1 x55 -1 x57 -1 x59 -1 x61 -1 x63 -1 x65 -1 x67 -1 x69 -1 x71 -1 x73 -1 x75 -1 x77 -1 x79 -1 x81 -1 x83 -1 x85 -1 x87 >= -10;
+1 x52 +1 x54 +1 x56 +1 x58 +1 x60 +1 x62 +1 x64 +1 x66 +1 x68 +1 x70 +1 x72 +1 x74 +1 x76 +1 x78 +1 x80 +1 x82 +1 x84 +1 x86 +1 x88 >= 9;
-1 x52 -1 x54 -1 x56 -1 x58 -1 x60 -1 x62 -1 x64 -1 x66 -1 x68 -1 x70 -1 x72 -1 x74 -1 x76 -1 x78 -1 x80 -1 x82 -1 x84 -1 x86 -1 x88 >= -10;
+1 x53 +1 x55 +1 x57 +1 x59 +1 x61 +1 x63 +1 x65 +1 x67 +1 x69 +1 x71 +1 x73 +1 x75 +1 x77 +1 x79 +1 x81 +1 x83 +1 x85 +1 x87 +1 x89 >= 9;
-1 x53 -1 x55 -1 x57 -1 x59 -1 x61 -1 x63 -1 x65 -1 x67 -1 x69 -1 x71 -1 x73 -1 x75 -1 x77 -1 x79 -1 x81 -1 x83 -1 x85 -1 x87 -1 x89 >= -10;
+1 x54 +1 x56 +1 x58 +1 x60 +1 x62 +1 x64 +1 x66 +1 x68 +1 x70 +1 x72 +1 x74 +1 x76 +1 x78 +1 x80 +1 x82 +1 x84 +1 x86 +1 x88 +1 x90 >= 9;
-1 x54 -1 x56 -1 x58 -1 x60 -1 x62 -1 x64 -1 x66 -1 x68 -1 x70 -1 x72 -1 x74 -1 x76 -1 x78 -1 x80 -1 x82 -1 x84 -1 x86 -1 x88 -1 x90 >= -10;
+1 x55 +1 x57 +1 x59 +1 x61 +1 x63 +1 x65 +1 x67 +1 x69 +1 x71 +1 x73 +1 x75 +1 x77 +1 x79 +1 x81 +1 x83 +1 x85 +1 x87 +1 x89 +1 x91 >= 9;
-1 x55 -1 x57 -1 x59 -1 x61 -1 x63 -1 x65 -1 x67 -1 x69 -1 x71 -1 x73 -1 x75 -1 x77 -1 x79 -1 x81 -1 x83 -1 x85 -1 x87 -1 x89 -1 x91 >= -10;
+1 x56 +1 x58 +1 x60 +1 x62 +1 x64 +1 x66 +1 x68 +1 x70 +1 x72 +1 x74 +1 x76 +1 x78 +1 x80 +1 x82 +1 x84 +1 x86 +1 x88 +1 x90 +1 x92 >= 9;
-1 x56 -1 x58 -1 x60 -1 x62 -1 x64 -1 x66 -1 x68 -1 x70 -1 x72 -1 x74 -1 x76 -1 x78 -1 x80 -1 x82 -1 x84 -1 x86 -1 x88 -1 x90 -1 x92 >= -10;
+1 x57 +1 x59 +1 x61 +1 x63 +1 x65 +1 x67 +1 x69 +1 x71 +1 x73 +1 x75 +1 x77 +1 x79 +1 x81 +1 x83 +1 x85 +1 x87 +1 x89 +1 x91 +1 x93 >= 9;
-1 x57 -1 x59 -1 x61 -1 x63 -1 x65 -1 x67 -1 x69 -1 x71 -1 x73 -1 x75 -1 x77 -1 x79 -1 x81 -1 x83 -1 x85 -1 x87 -1 x89 -1 x91 -1 x93 >= -10;
+1 x58 +1 x60 +1 x62 +1 x64 +1 x66 +1 x68 +1 x70 +1 x72 +1 x74 +1 x76 +1 x78 +1 x80 +1 x82 +1 x84 +1 x86 +1 x88 +1 x90 +1 x92 +1 x94 >= 9;
-1 x58 -1 x60 -1 x62 -1 x64 -1 x66 -1 x68 -1 x70 -1 x72 -1 x74 -1 x76 -1 x78 -1 x80 -1 x82 -1 x84 -1 x86 -1 x88 -1 x90 -1 x92 -1 x94 >= -10;
+1 x59 +1 x61 +1 x63 +1 x65 +1 x67 +1 x69 +1 x71 +1 x73 +1 x75 +1 x77 +1 x79 +1 x81 +1 x83 +1 x85 +1 x87 +1 x89 +1 x91 +1 x93 +1 x95 >= 9;
-1 x59 -1 x61 -1 x63 -1 x65 -1 x67 -1 x69 -1 x71 -1 x73 -1 x75 -1 x77 -1 x79 -1 x81 -1 x83 -1 x85 -1 x87 -1 x89 -1 x91 -1 x93 -1 x95 >= -10;
+1 x60 +1 x62 +1 x64 +1 x66 +1 x68 +1 x70 +1 x72 +1 x74 +1 x76 +1 x78 +1 x80 +1 x82 +1 x84 +1 x86 +1 x88 +1 x90 +1 x92 +1 x94 +1 x96 >= 9;
-1 x60 -1 x62 -1 x64 -1 x66 -1 x68 -1 x70 -1 x72 -1 x74 -1 x76 -1 x78 -1 x80 -1 x82 -1 x84 -1 x86 -1 x88 -1 x90 -1 x92 -1 x94 -1 x96 >= -10;
+1 x61 +1 x63 +1 x65 +1 x67 +1 x69 +1 x71 +1 x73 +1 x75 +1 x77 +1 x79 +1 x81 +1 x83 +1 x85 +1 x87 +1 x89 +1 x91 +1 x93 +1 x95 +1 x97 >= 9;
-1 x61 -1 x63 -1 x65 -1 x67 -1 x69 -1 x71 -1 x73 -1 x75 -1 x77 -1 x79 -1 x81 -1 x83 -1 x85 -1 x87 -1 x89 -1 x91 -1 x93 -1 x95 -1 x97 >= -10;
+1 x62 +1 x64 +1 x66 +1 x68 +1 x70 +1 x72 +1 x74 +1 x76 +1 x78 +1 x80 +1 x82 +1 x84 +1 x86 +1 x88 +1 x90 +1 x92 +1 x94 +1 x96 +1 x98 >= 9;
-1 x62 -1 x64 -1 x66 -1 x68 -1 x70 -1 x72 -1 x74 -1 x76 -1 x78 -1 x80 -1 x82 -1 x84 -1 x86 -1 x88 -1 x90 -1 x92 -1 x94 -1 x96 -1 x98 >= -10;
+1 x63 +1 x65 +1 x67 +1 x69 +1 x71 +1 x73 +1 x75 +1 x77 +1 x79 +1 x81 +1 x83 +1 x85 +1 x87 +1 x89 +1 x91 +1 x93 +1 x95 +1 x97 +1 x99 >= 9;
-1 x63 -1 x65 -1 x67 -1 x69 -1 x71 -1 x73 -1 x75 -1 x77 -1 x79 -1 x81 -1 x83 -1 x85 -1 x87 -1 x89 -1 x91 -1 x93 -1 x95 -1 x97 -1 x99 >= -10;
+1 x64 +1 x66 +1 x68 +1 x70 +1 x72 +1 x74 +1 x76 +1 x78 +1 x80 +1 x82 +1 x84 +1 x86 +1 x88 +1 x90 +1 x92 +1 x94 +1 x96 +1 x98 +1 x100 >= 9;
-1 x64 -1 x66 -1 x68 -1 x70 -1 x72 -1 x74 -1 x76 -1 x78 -1 x80 -1 x82 -1 x84 -1 x86 -1 x88 -1 x90 -1 x92 -1 x94 -1 x96 -1 x98 -1 x100 >= -10;
+1 x65 +1 x67 +1 x69 +1 x71 +1 x73 +1 x75 +1 x77 +1 x79 +1 x81 +1 x83 +1 x85 +1 x87 +1 x89 +1 x91 +1 x93 +1 x95 +1 x97 +1 x99 +1 x101 >= 9;
-1 x65 -1 x67 -1 x69 -1 x71 -1 x73 -1 x75 -1 x77 -1 x79 -1 x81 -1 x83 -1 x85 -1 x87 -1 x89 -1 x91 -1 x93 -1 x95 -1 x97 -1 x99 -1 x101 >= -10;
+1 x66 +1 x68 +1 x70 +1 x72 +1 x74 +1 x76 +1 x78 +1 x80 +1 x82 +1 x84 +1 x86 +1 x88 +1 x90 +1 x92 +1 x94 +1 x96 +1 x98 +1 x100 +1 x102 >= 9;
-1 x66 -1 x68 -1 x70 -1 x72 -1 x74 -1 x76 -1 x78 -1 x80 -1 x82 -1 x84 -1 x86 -1 x88 -1 x90 -1 x92 -1 x94 -1 x96 -1 x98 -1 x100 -1 x102 >= -10;
+1 x67 +1 x69 +1 x71 +1 x73 +1 x75 +1 x77 +1 x79 +1 x81 +1 x83 +1 x85 +1 x87 +1 x89 +1 x91 +1 x93 +1 x95 +1 x97 +1 x99 +1 x101 +1 x103 >= 9;
-1 x67 -1 x69 -1 x71 -1 x73 -1 x75 -1 x77 -1 x79 -1 x81 -1 x83 -1 x85 -1 x87 -1 x89 -1 x91 -1 x93 -1 x95 -1 x97 -1 x99 -1 x101 -1 x103 >= -10;
+1 x68 +1 x70 +1 x72 +1 x74 +1 x76 +1 x78 +1 x80 +1 x82 +1 x84 +1 x86 +1 x88 +1 x90 +1 x92 +1 x94 +1 x96 +1 x98 +1 x100 +1 x102 +1 x104 >= 9;
-1 x68 -1 x70 -1 x72 -1 x74 -1 x76 -1 x78 -1 x80 -1 x82 -1 x84 -1 x86 -1 x88 -1 x90 -1 x92 -1 x94 -1 x96 -1 x98 -1 x100 -1 x102 -1 x104 >= -10;
+1 x69 +1 x71 +1 x73 +1 x75 +1 x77 +1 x79 +1 x81 +1 x83 +1 x85 +1 x87 +1 x89 +1 x91 +1 x93 +1 x95 +1 x97 +1 x99 +1 x101 +1 x103 +1 x105 >= 9;
-1 x69 -1 x71 -1 x73 -1 x75 -1 x77 -1 x79 -1 x81 -1 x83 -1 x85 -1 x87 -1 x89 -1 x91 -1 x93 -1 x95 -1 x97 -1 x99 -1 x101 -1 x103 -1 x105 >= -10;
+1 x70 +1 x72 +1 x74 +1 x76 +1 x78 +1 x80 +1 x82 +1 x84 +1 x86 +1 x88 +1 x90 +1 x92 +1 x94 +1 x96 +1 x98 +1 x100 +1 x102 +1 x104 +1 x106 >= 9;
-1 x70 -1 x72 -1 x74 -1 x76 -1 x78 -1 x80 -1 x82 -1 x84 -1 x86 -1 x88 -1 x90 -1 x92 -1 x94 -1 x96 -1 x98 -1 x100 -1 x102 -1 x104 -1 x106 >= -10;
+1 x71 +1 x73 +1 x75 +1 x77 +1 x79 +1 x81 +1 x83 +1 x85 +1 x87 +1 x89 +1 x91 +1 x93 +1 x95 +1 x97 +1 x99 +1 x101 +1 x103 +1 x105 +1 x107 >= 9;
-1 x71 -1 x73 -1 x75 -1 x77 -1 x79 -1 x81 -1 x83 -1 x85 -1 x87 -1 x89 -1 x91 -1 x93 -1 x95 -1 x97 -1 x99 -1 x101 -1 x103 -1 x105 -1 x107 >= -10;
+1 x72 +1 x74 +1 x76 +1 x78 +1 x80 +1 x82 +1 x84 +1 x86 +1 x88 +1 x90 +1 x92 +1 x94 +1 x96 +1 x98 +1 x100 +1 x102 +1 x104 +1 x106 +1 x108 >= 9;
-1 x72 -1 x74 -1 x76 -1 x78 -1 x80 -1 x82 -1 x84 -1 x86 -1 x88 -1 x90 -1 x92 -1 x94 -1 x96 -1 x98 -1 x100 -1 x102 -1 x104 -1 x106 -1 x108 >= -10;
+1 x73 +1 x75 +1 x77 +1 x79 +1 x81 +1 x83 +1 x85 +1 x87 +1 x89 +1 x91 +1 x93 +1 x95 +1 x97 +1 x99 +1 x101 +1 x103 +1 x105 +1 x107 +1 x109 >= 9;
-1 x73 -1 x75 -1 x77 -1 x79 -1 x81 -1 x83 -1 x85 -1 x87 -1 x89 -1 x91 -1 x93 -1 x95 -1 x97 -1 x99 -1 x101 -1 x103 -1 x105 -1 x107 -1 x109 >= -10;
+1 x74 +1 x76 +1 x78 +1 x80 +1 x82 +1 x84 +1 x86 +1 x88 +1 x90 +1 x92 +1 x94 +1 x96 +1 x98 +1 x100 +1 x102 +1 x104 +1 x106 +1 x108 +1 x110 >= 9;
-1 x74 -1 x76 -1 x78 -1 x80 -1 x82 -1 x84 -1 x86 -1 x88 -1 x90 -1 x92 -1 x94 -1 x96 -1 x98 -1 x100 -1 x102 -1 x104 -1 x106 -1 x108 -1 x110 >= -10;
+1 x75 +1 x77 +1 x79 +1 x81 +1 x83 +1 x85 +1 x87 +1 x89 +1 x91 +1 x93 +1 x95 +1 x97 +1 x99 +1 x101 +1 x103 +1 x105 +1 x107 +1 x109 +1 x111 >= 9;
-1 x75 -1 x77 -1 x79 -1 x81 -1 x83 -1 x85 -1 x87 -1 x89 -1 x91 -1 x93 -1 x95 -1 x97 -1 x99 -1 x101 -1 x103 -1 x105 -1 x107 -1 x109 -1 x111 >= -10;
+1 x76 +1 x78 +1 x80 +1 x82 +1 x84 +1 x86 +1 x88 +1 x90 +1 x92 +1 x94 +1 x96 +1 x98 +1 x100 +1 x102 +1 x104 +1 x106 +1 x108 +1 x110 +1 x112 >= 9;
-1 x76 -1 x78 -1 x80 -1 x82 -1 x84 -1 x86 -1 x88 -1 x90 -1 x92 -1 x94 -1 x96 -1 x98 -1 x100 -1 x102 -1 x104 -1 x106 -1 x108 -1 x110 -1 x112 >= -10;
+1 x77 +1 x79 +1 x81 +1 x83 +1 x85 +1 x87 +1 x89 +1 x91 +1 x93 +1 x95 +1 x97 +1 x99 +1 x101 +1 x103 +1 x105 +1 x107 +1 x109 +1 x111 +1 x113 >= 9;
-1 x77 -1 x79 -1 x81 -1 x83 -1 x85 -1 x87 -1 x89 -1 x91 -1 x93 -1 x95 -1 x97 -1 x99 -1 x101 -1 x103 -1 x105 -1 x107 -1 x109 -1 x111 -1 x113 >= -10;
+1 x78 +1 x80 +1 x82 +1 x84 +1 x86 +1 x88 +1 x90 +1 x92 +1 x94 +1 x96 +1 x98 +1 x100 +1 x102 +1 x104 +1 x106 +1 x108 +1 x110 +1 x112 +1 x114 >= 9;
-1 x78 -1 x80 -1 x82 -1 x84 -1 x86 -1 x88 -1 x90 -1 x92 -1 x94 -1 x96 -1 x98 -1 x100 -1 x102 -1 x104 -1 x106 -1 x108 -1 x110 -1 x112 -1 x114 >= -10;
+1 x79 +1 x81 +1 x83 +1 x85 +1 x87 +1 x89 +1 x91 +1 x93 +1 x95 +1 x97 +1 x99 +1 x101 +1 x103 +1 x105 +1 x107 +1 x109 +1 x111 +1 x113 +1 x115 >= 9;
-1 x79 -1 x81 -1 x83 -1 x85 -1 x87 -1 x89 -1 x91 -1 x93 -1 x95 -1 x97 -1 x99 -1 x101 -1 x103 -1 x105 -1 x107 -1 x109 -1 x111 -1 x113 -1 x115 >= -10;
+1 x80 +1 x82 +1 x84 +1 x86 +1 x88 +1 x90 +1 x92 +1 x94 +1 x96 +1 x98 +1 x100 +1 x102 +1 x104 +1 x106 +1 x108 +1 x110 +1 x112 +1 x114 +1 x116 >= 9;
-1 x80 -1 x82 -1 x84 -1 x86 -1 x88 -1 x90 -1 x92 -1 x94 -1 x96 -1 x98 -1 x100 -1 x102 -1 x104 -1 x106 -1 x108 -1 x110 -1 x112 -1 x114 -1 x116 >= -10;
+1 x81 +1 x83 +1 x85 +1 x87 +1 x89 +1 x91 +1 x93 +1 x95 +1 x97 +1 x99 +1 x101 +1 x103 +1 x105 +1 x107 +1 x109 +1 x111 +1 x113 +1 x115 +1 x117 >= 9;
-1 x81 -1 x83 -1 x85 -1 x87 -1 x89 -1 x91 -1 x93 -1 x95 -1 x97 -1 x99 -1 x101 -1 x103 -1 x105 -1 x107 -1 x109 -1 x111 -1 x113 -1 x115 -1 x117 >= -10;
+1 x82 +1 x84 +1 x86 +1 x88 +1 x90 +1 x92 +1 x94 +1 x96 +1 x98 +1 x100 +1 x102 +1 x104 +1 x106 +1 x108 +1 x110 +1 x112 +1 x114 +1 x116 +1 x118 >= 9;
-1 x82 -1 x84 -1 x86 -1 x88 -1 x90 -1 x92 -1 x94 -1 x96 -1 x98 -1 x100 -1 x102 -1 x104 -1 x106 -1 x108 -1 x110 -1 x112 -1 x114 -1 x116 -1 x118 >= -10;
+1 x83 +1 x85 +1 x87 +1 x89 +1 x91 +1 x93 +1 x95 +1 x97 +1 x99 +1 x101 +1 x103 +1 x105 +1 x107 +1 x109 +1 x111 +1 x113 +1 x115 +1 x117 +1 x119 >= 9;
-1 x83 -1 x85 -1 x87 -1 x89 -1 x91 -1 x93 -1 x95 -1 x97 -1 x99 -1 x101 -1 x103 -1 x105 -1 x107 -1 x109 -1 x111 -1 x113 -1 x115 -1 x117 -1 x119 >= -10;
+1 x84 +1 x86 +1 x88 +1 x90 +1 x92 +1 x94 +1 x96 +1 x98 +1 x100 +1 x102 +1 x104 +1 x106 +1 x108 +1 x110 +1 x112 +1 x114 +1 x116 +1 x118 +1 x120 >= 9;
-1 x84 -1 x86 -1 x88 -1 x90 -1 x92 -1 x94 -1 x96 -1 x98 -1 x100 -1 x102 -1 x104 -1 x106 -1 x108 -1 x110 -1 x112 -1 x114 -1 x116 -1 x118 -1 x120 >= -10;
+1 x85 +1 x87 +1 x89 +1 x91 +1 x93 +1 x95 +1 x97 +1 x99 +1 x101 +1 x103 +1 x105 +1 x107 +1 x109 +1 x111 +1 x113 +1 x115 +1 x117 +1 x119 +1 x121 >= 9;
-1 x85 -1 x87 -1 x89 -1 x91 -1 x93 -1 x95 -1 x97 -1 x99 -1 x101 -1 x103 -1 x105 -1 x107 -1 x109 -1 x111 -1 x113 -1 x115 -1 x117 -1 x119 -1 x121 >= -10;
+1 x86 +1 x88 +1 x90 +1 x92 +1 x94 +1 x96 +1 x98 +1 x100 +1 x102 +1 x104 +1 x106 +1 x108 +1 x110 +1 x112 +1 x114 +1 x116 +1 x118 +1 x120 +1 x122 >= 9;
-1 x86 -1 x88 -1 x90 -1 x92 -1 x94 -1 x96 -1 x98 -1 x100 -1 x102 -1 x104 -1 x106 -1 x108 -1 x110 -1 x112 -1 x114 -1 x116 -1 x118 -1 x120 -1 x122 >= -10;
+1 x87 +1 x89 +1 x91 +1 x93 +1 x95 +1 x97 +1 x99 +1 x101 +1 x103 +1 x105 +1 x107 +1 x109 +1 x111 +1 x113 +1 x115 +1 x117 +1 x119 +1 x121 +1 x123 >= 9;
-1 x87 -1 x89 -1 x91 -1 x93 -1 x95 -1 x97 -1 x99 -1 x101 -1 x103 -1 x105 -1 x107 -1 x109 -1 x111 -1 x113 -1 x115 -1 x117 -1 x119 -1 x121 -1 x123 >= -10;
+1 x88 +1 x90 +1 x92 +1 x94 +1 x96 +1 x98 +1 x100 +1 x102 +1 x104 +1 x106 +1 x108 +1 x110 +1 x112 +1 x114 +1 x116 +1 x118 +1 x120 +1 x122 +1 x124 >= 9;
-1 x88 -1 x90 -1 x92 -1 x94 -1 x96 -1 x98 -1 x100 -1 x102 -1 x104 -1 x106 -1 x108 -1 x110 -1 x112 -1 x114 -1 x116 -1 x118 -1 x120 -1 x122 -1 x124 >= -10;
+1 x89 +1 x91 +1 x93 +1 x95 +1 x97 +1 x99 +1 x101 +1 x103 +1 x105 +1 x107 +1 x109 +1 x111 +1 x113 +1 x115 +1 x117 +1 x119 +1 x121 +1 x123 +1 x125 >= 9;
-1 x89 -1 x91 -1 x93 -1 x95 -1 x97 -1 x99 -1 x101 -1 x103 -1 x105 -1 x107 -1 x109 -1 x111 -1 x113 -1 x115 -1 x117 -1 x119 -1 x121 -1 x123 -1 x125 >= -10;
+1 x90 +1 x92 +1 x94 +1 x96 +1 x98 +1 x100 +1 x102 +1 x104 +1 x106 +1 x108 +1 x110 +1 x112 +1 x114 +1 x116 +1 x118 +1 x120 +1 x122 +1 x124 +1 x126 >= 9;
-1 x90 -1 x92 -1 x94 -1 x96 -1 x98 -1 x100 -1 x102 -1 x104 -1 x106 -1 x108 -1 x110 -1 x112 -1 x114 -1 x116 -1 x118 -1 x120 -1 x122 -1 x124 -1 x126 >= -10;
+1 x91 +1 x93 +1 x95 +1 x97 +1 x99 +1 x101 +1 x103 +1 x105 +1 x107 +1 x109 +1 x111 +1 x113 +1 x115 +1 x117 +1 x119 +1 x121 +1 x123 +1 x125 +1 x127 >= 9;
-1 x91 -1 x93 -1 x95 -1 x97 -1 x99 -1 x101 -1 x103 -1 x105 -1 x107 -1 x109 -1 x111 -1 x113 -1 x115 -1 x117 -1 x119 -1 x121 -1 x123 -1 x125 -1 x127 >= -10;
+1 x92 +1 x94 +1 x96 +1 x98 +1 x100 +1 x102 +1 x104 +1 x106 +1 x108 +1 x110 +1 x112 +1 x114 +1 x116 +1 x118 +1 x120 +1 x122 +1 x124 +1 x126 +1 x128 >= 9;
-1 x92 -1 x94 -1 x96 -1 x98 -1 x100 -1 x102 -1 x104 -1 x106 -1 x108 -1 x110 -1 x112 -1 x114 -1 x116 -1 x118 -1 x120 -1 x122 -1 x124 -1 x126 -1 x128 >= -10;
+1 x93 +1 x95 +1 x97 +1 x99 +1 x101 +1 x103 +1 x105 +1 x107 +1 x109 +1 x111 +1 x113 +1 x115 +1 x117 +1 x119 +1 x121 +1 x123 +1 x125 +1 x127 +1 x129 >= 9;
-1 x93 -1 x95 -1 x97 -1 x99 -1 x101 -1 x103 -1 x105 -1 x107 -1 x109 -1 x111 -1 x113 -1 x115 -1 x117 -1 x119 -1 x121 -1 x123 -1 x125 -1 x127 -1 x129 >= -10;
+1 x94 +1 x96 +1 x98 +1 x100 +1 x102 +1 x104 +1 x106 +1 x108 +1 x110 +1 x112 +1 x114 +1 x116 +1 x118 +1 x120 +1 x122 +1 x124 +1 x126 +1 x128 +1 x130 >= 9;
-1 x94 -1 x96 -1 x98 -1 x100 -1 x102 -1 x104 -1 x106 -1 x108 -1 x110 -1 x112 -1 x114 -1 x116 -1 x118 -1 x120 -1 x122 -1 x124 -1 x126 -1 x128 -1 x130 >= -10;
+1 x95 +1 x97 +1 x99 +1 x101 +1 x103 +1 x105 +1 x107 +1 x109 +1 x111 +1 x113 +1 x115 +1 x117 +1 x119 +1 x121 +1 x123 +1 x125 +1 x127 +1 x129 +1 x131 >= 9;
-1 x95 -1 x97 -1 x99 -1 x101 -1 x103 -1 x105 -1 x107 -1 x109 -1 x111 -1 x113 -1 x115 -1 x117 -1 x119 -1 x121 -1 x123 -1 x125 -1 x127 -1 x129 -1 x131 >= -10;
+1 x96 +1 x98 +1 x100 +1 x102 +1 x104 +1 x106 +1 x108 +1 x110 +1 x112 +1 x114 +1 x116 +1 x118 +1 x120 +1 x122 +1 x124 +1 x126 +1 x128 +1 x130 +1 x132 >= 9;
-1 x96 -1 x98 -1 x100 -1 x102 -1 x104 -1 x106 -1 x108 -1 x110 -1 x112 -1 x114 -1 x116 -1 x118 -1 x120 -1 x122 -1 x124 -1 x126 -1 x128 -1 x130 -1 x132 >= -10;
+1 x97 +1 x99 +1 x101 +1 x103 +1 x105 +1 x107 +1 x109 +1 x111 +1 x113 +1 x115 +1 x117 +1 x119 +1 x121 +1 x123 +1 x125 +1 x127 +1 x129 +1 x131 +1 x133 >= 9;
-1 x97 -1 x99 -1 x101 -1 x103 -1 x105 -1 x107 -1 x109 -1 x111 -1 x113 -1 x115 -1 x117 -1 x119 -1 x121 -1 x123 -1 x125 -1 x127 -1 x129 -1 x131 -1 x133 >= -10;
+1 x98 +1 x100 +1 x102 +1 x104 +1 x106 +1 x108 +1 x110 +1 x112 +1 x114 +1 x116 +1 x118 +1 x120 +1 x122 +1 x124 +1 x126 +1 x128 +1 x130 +1 x132 +1 x134 >= 9;
-1 x98 -1 x100 -1 x102 -1 x104 -1 x106 -1 x108 -1 x110 -1 x112 -1 x114 -1 x116 -1 x118 -1 x120 -1 x122 -1 x124 -1 x126 -1 x128 -1 x130 -1 x132 -1 x134 >= -10;
+1 x99 +1 x101 +1 x103 +1 x105 +1 x107 +1 x109 +1 x111 +1 x113 +1 x115 +1 x117 +1 x119 +1 x121 +1 x123 +1 x125 +1 x127 +1 x129 +1 x131 +1 x133 +1 x135 >= 9;
-1 x99 -1 x101 -1 x103 -1 x105 -1 x107 -1 x109 -1 x111 -1 x113 -1 x115 -1 x117 -1 x119 -1 x121 -1 x123 -1 x125 -1 x127 -1 x129 -1 x131 -1 x133 -1 x135 >= -10;
+1 x100 +1 x102 +1 x104 +1 x106 +1 x108 +1 x110 +1 x112 +1 x114 +1 x116 +1 x118 +1 x120 +1 x122 +1 x124 +1 x126 +1 x128 +1 x130 +1 x132 +1 x134 +1 x136 >= 9;
-1 x100 -1 x102 -1 x104 -1 x106 -1 x108 -1 x110 -1 x112 -1 x114 -1 x116 -1 x118 -1 x120 -1 x122 -1 x124 -1 x126 -1 x128 -1 x130 -1 x132 -1 x134 -1 x136 >= -10;
+1 x101 +1 x103 +1 x105 +1 x107 +1 x109 +1 x111 +1 x113 +1 x115 +1 x117 +1 x119 +1 x121 +1 x123 +1 x125 +1 x127 +1 x129 +1 x131 +1 x133 +1 x135 +1 x137 >= 9;
-1 x101 -1 x103 -1 x105 -1 x107 -1 x109 -1 x111 -1 x113 -1 x115 -1 x117 -1 x119 -1 x121 -1 x123 -1 x125 -1 x127 -1 x129 -1 x131 -1 x133 -1 x135 -1 x137 >= -10;
+1 x102 +1 x104 +1 x106 +1 x108 +1 x110 +1 x112 +1 x114 +1 x116 +1 x118 +1 x120 +1 x122 +1 x124 +1 x126 +1 x128 +1 x130 +1 x132 +1 x134 +1 x136 +1 x138 >= 9;
-1 x102 -1 x104 -1 x106 -1 x108 -1 x110 -1 x112 -1 x114 -1 x116 -1 x118 -1 x120 -1 x122 -1 x124 -1 x126 -1 x128 -1 x130 -1 x132 -1 x134 -1 x136 -1 x138 >= -10;
+1 x103 +1 x105 +1 x107 +1 x109 +1 x111 +1 x113 +1 x115 +1 x117 +1 x119 +1 x121 +1 x123 +1 x125 +1 x127 +1 x129 +1 x131 +1 x133 +1 x135 +1 x137 +1 x139 >= 9;
-1 x103 -1 x105 -1 x107 -1 x109 -1 x111 -1 x113 -1 x115 -1 x117 -1 x119 -1 x121 -1 x123 -1 x125 -1 x127 -1 x129 -1 x131 -1 x133 -1 x135 -1 x137 -1 x139 >= -10;
+1 x104 +1 x106 +1 x108 +1 x110 +1 x112 +1 x114 +1 x116 +1 x118 +1 x120 +1 x122 +1 x124 +1 x126 +1 x128 +1 x130 +1 x132 +1 x134 +1 x136 +1 x138 +1 x140 >= 9;
-1 x104 -1 x106 -1 x108 -1 x110 -1 x112 -1 x114 -1 x116 -1 x118 -1 x120 -1 x122 -1 x124 -1 x126 -1 x128 -1 x130 -1 x132 -1 x134 -1 x136 -1 x138 -1 x140 >= -10;
+1 x105 +1 x107 +1 x109 +1 x111 +1 x113 +1 x115 +1 x117 +1 x119 +1 x121 +1 x123 +1 x125 +1 x127 +1 x129 +1 x131 +1 x133 +1 x135 +1 x137 +1 x139 +1 x141 >= 9;
-1 x105 -1 x107 -1 x109 -1 x111 -1 x113 -1 x115 -1 x117 -1 x119 -1 x121 -1 x123 -1 x125 -1 x127 -1 x129 -1 x131 -1 x133 -1 x135 -1 x137 -1 x139 -1 x141 >= -10;
+1 x106 +1 x108 +1 x110 +1 x112 +1 x114 +1 x116 +1 x118 +1 x120 +1 x122 +1 x124 +1 x126 +1 x128 +1 x130 +1 x132 +1 x134 +1 x136 +1 x138 +1 x140 +1 x142 >= 9;
-1 x106 -1 x108 -1 x110 -1 x112 -1 x114 -1 x116 -1 x118 -1 x120 -1 x122 -1 x124 -1 x126 -1 x128 -1 x130 -1 x132 -1 x134 -1 x136 -1 x138 -1 x140 -1 x142 >= -10;
+1 x107 +1 x109 +1 x111 +1 x113 +1 x115 +1 x117 +1 x119 +1 x121 +1 x123 +1 x125 +1 x127 +1 x129 +1 x131 +1 x133 +1 x135 +1 x137 +1 x139 +1 x141 +1 x143 >= 9;
-1 x107 -1 x109 -1 x111 -1 x113 -1 x115 -1 x117 -1 x119 -1 x121 -1 x123 -1 x125 -1 x127 -1 x129 -1 x131 -1 x133 -1 x135 -1 x137 -1 x139 -1 x141 -1 x143 >= -10;
+1 x108 +1 x110 +1 x112 +1 x114 +1 x116 +1 x118 +1 x120 +1 x122 +1 x124 +1 x126 +1 x128 +1 x130 +1 x132 +1 x134 +1 x136 +1 x138 +1 x140 +1 x142 +1 x144 >= 9;
-1 x108 -1 x110 -1 x112 -1 x114 -1 x116 -1 x118 -1 x120 -1 x122 -1 x124 -1 x126 -1 x128 -1 x130 -1 x132 -1 x134 -1 x136 -1 x138 -1 x140 -1 x142 -1 x144 >= -10;
+1 x109 +1 x111 +1 x113 +1 x115 +1 x117 +1 x119 +1 x121 +1 x123 +1 x125 +1 x127 +1 x129 +1 x131 +1 x133 +1 x135 +1 x137 +1 x139 +1 x141 +1 x143 +1 x145 >= 9;
-1 x109 -1 x111 -1 x113 -1 x115 -1 x117 -1 x119 -1 x121 -1 x123 -1 x125 -1 x127 -1 x129 -1 x131 -1 x133 -1 x135 -1 x137 -1 x139 -1 x141 -1 x143 -1 x145 >= -10;
+1 x110 +1 x112 +1 x114 +1 x116 +1 x118 +1 x120 +1 x122 +1 x124 +1 x126 +1 x128 +1 x130 +1 x132 +1 x134 +1 x136 +1 x138 +1 x140 +1 x142 +1 x144 +1 x146 >= 9;
-1 x110 -1 x112 -1 x114 -1 x116 -1 x118 -1 x120 -1 x122 -1 x124 -1 x126 -1 x128 -1 x130 -1 x132 -1 x134 -1 x136 -1 x138 -1 x140 -1 x142 -1 x144 -1 x146 >= -10;
+1 x111 +1 x113 +1 x115 +1 x117 +1 x119 +1 x121 +1 x123 +1 x125 +1 x127 +1 x129 +1 x131 +1 x133 +1 x135 +1 x137 +1 x139 +1 x141 +1 x143 +1 x145 +1 x147 >= 9;
-1 x111 -1 x113 -1 x115 -1 x117 -1 x119 -1 x121 -1 x123 -1 x125 -1 x127 -1 x129 -1 x131 -1 x133 -1 x135 -1 x137 -1 x139 -1 x141 -1 x143 -1 x145 -1 x147 >= -10;
+1 x112 +1 x114 +1 x116 +1 x118 +1 x120 +1 x122 +1 x124 +1 x126 +1 x128 +1 x130 +1 x132 +1 x134 +1 x136 +1 x138 +1 x140 +1 x142 +1 x144 +1 x146 +1 x148 >= 9;
-1 x112 -1 x114 -1 x116 -1 x118 -1 x120 -1 x122 -1 x124 -1 x126 -1 x128 -1 x130 -1 x132 -1 x134 -1 x136 -1 x138 -1 x140 -1 x142 -1 x144 -1 x146 -1 x148 >= -10;
+1 x113 +1 x115 +1 x117 +1 x119 +1 x121 +1 x123 +1 x125 +1 x127 +1 x129 +1 x131 +1 x133 +1 x135 +1 x137 +1 x139 +1 x141 +1 x143 +1 x145 +1 x147 +1 x149 >= 9;
-1 x113 -1 x115 -1 x117 -1 x119 -1 x121 -1 x123 -1 x125 -1 x127 -1 x129 -1 x131 -1 x133 -1 x135 -1 x137 -1 x139 -1 x141 -1 x143 -1 x145 -1 x147 -1 x149 >= -10;
+1 x114 +1 x116 +1 x118 +1 x120 +1 x122 +1 x124 +1 x126 +1 x128 +1 x130 +1 x132 +1 x134 +1 x136 +1 x138 +1 x140 +1 x142 +1 x144 +1 x146 +1 x148 +1 x150 >= 9;
-1 x114 -1 x116 -1 x118 -1 x120 -1 x122 -1 x124 -1 x126 -1 x128 -1 x130 -1 x132 -1 x134 -1 x136 -1 x138 -1 x140 -1 x142 -1 x144 -1 x146 -1 x148 -1 x150 >= -10;
+1 x115 +1 x117 +1 x119 +1 x121 +1 x123 +1 x125 +1 x127 +1 x129 +1 x131 +1 x133 +1 x135 +1 x137 +1 x139 +1 x141 +1 x143 +1 x145 +1 x147 +1 x149 +1 x151 >= 9;
-1 x115 -1 x117 -1 x119 -1 x121 -1 x123 -1 x125 -1 x127 -1 x129 -1 x131 -1 x133 -1 x135 -1 x137 -1 x139 -1 x141 -1 x143 -1 x145 -1 x147 -1 x149 -1 x151 >= -10;
+1 x116 +1 x118 +1 x120 +1 x122 +1 x124 +1 x126 +1 x128 +1 x130 +1 x132 +1 x134 +1 x136 +1 x138 +1 x140 +1 x142 +1 x144 +1 x146 +1 x148 +1 x150 +1 x152 >= 9;
-1 x116 -1 x118 -1 x120 -1 x122 -1 x124 -1 x126 -1 x128 -1 x130 -1 x132 -1 x134 -1 x136 -1 x138 -1 x140 -1 x142 -1 x144 -1 x146 -1 x148 -1 x150 -1 x152 >= -10;
+1 x117 +1 x119 +1 x121 +1 x123 +1 x125 +1 x127 +1 x129 +1 x131 +1 x133 +1 x135 +1 x137 +1 x139 +1 x141 +1 x143 +1 x145 +1 x147 +1 x149 +1 x151 +1 x153 >= 9;
-1 x117 -1 x119 -1 x121 -1 x123 -1 x125 -1 x127 -1 x129 -1 x131 -1 x133 -1 x135 -1 x137 -1 x139 -1 x141 -1 x143 -1 x145 -1 x147 -1 x149 -1 x151 -1 x153 >= -10;
+1 x118 +1 x120 +1 x122 +1 x124 +1 x126 +1 x128 +1 x130 +1 x132 +1 x134 +1 x136 +1 x138 +1 x140 +1 x142 +1 x144 +1 x146 +1 x148 +1 x150 +1 x152 +1 x154 >= 9;
-1 x118 -1 x120 -1 x122 -1 x124 -1 x126 -1 x128 -1 x130 -1 x132 -1 x134 -1 x136 -1 x138 -1 x140 -1 x142 -1 x144 -1 x146 -1 x148 -1 x150 -1 x152 -1 x154 >= -10;
+1 x119 +1 x121 +1 x123 +1 x125 +1 x127 +1 x129 +1 x131 +1 x133 +1 x135 +1 x137 +1 x139 +1 x141 +1 x143 +1 x145 +1 x147 +1 x149 +1 x151 +1 x153 +1 x155 >= 9;
-1 x119 -1 x121 -1 x123 -1 x125 -1 x127 -1 x129 -1 x131 -1 x133 -1 x135 -1 x137 -1 x139 -1 x141 -1 x143 -1 x145 -1 x147 -1 x149 -1 x151 -1 x153 -1 x155 >= -10;
+1 x120 +1 x122 +1 x124 +1 x126 +1 x128 +1 x130 +1 x132 +1 x134 +1 x136 +1 x138 +1 x140 +1 x142 +1 x144 +1 x146 +1 x148 +1 x150 +1 x152 +1 x154 +1 x156 >= 9;
-1 x120 -1 x122 -1 x124 -1 x126 -1 x128 -1 x130 -1 x132 -1 x134 -1 x136 -1 x138 -1 x140 -1 x142 -1 x144 -1 x146 -1 x148 -1 x150 -1 x152 -1 x154 -1 x156 >= -10;
+1 x121 +1 x123 +1 x125 +1 x127 +1 x129 +1 x131 +1 x133 +1 x135 +1 x137 +1 x139 +1 x141 +1 x143 +1 x145 +1 x147 +1 x149 +1 x151 +1 x153 +1 x155 +1 x157 >= 9;
-1 x121 -1 x123 -1 x125 -1 x127 -1 x129 -1 x131 -1 x133 -1 x135 -1 x137 -1 x139 -1 x141 -1 x143 -1 x145 -1 x147 -1 x149 -1 x151 -1 x153 -1 x155 -1 x157 >= -10;
+1 x122 +1 x124 +1 x126 +1 x128 +1 x130 +1 x132 +1 x134 +1 x136 +1 x138 +1 x140 +1 x142 +1 x144 +1 x146 +1 x148 +1 x150 +1 x152 +1 x154 +1 x156 +1 x158 >= 9;
-1 x122 -1 x124 -1 x126 -1 x128 -1 x130 -1 x132 -1 x134 -1 x136 -1 x138 -1 x140 -1 x142 -1 x144 -1 x146 -1 x148 -1 x150 -1 x152 -1 x154 -1 x156 -1 x158 >= -10;
+1 x123 +1 x125 +1 x127 +1 x129 +1 x131 +1 x133 +1 x135 +1 x137 +1 x139 +1 x141 +1 x143 +1 x145 +1 x147 +1 x149 +1 x151 +1 x153 +1 x155 +1 x157 +1 x159 >= 9;
-1 x123 -1 x125 -1 x127 -1 x129 -1 x131 -1 x133 -1 x135 -1 x137 -1 x139 -1 x141 -1 x143 -1 x145 -1 x147 -1 x149 -1 x151 -1 x153 -1 x155 -1 x157 -1 x159 >= -10;
+1 x124 +1 x126 +1 x128 +1 x130 +1 x132 +1 x134 +1 x136 +1 x138 +1 x140 +1 x142 +1 x144 +1 x146 +1 x148 +1 x150 +1 x152 +1 x154 +1 x156 +1 x158 +1 x160 >= 9;
-1 x124 -1 x126 -1 x128 -1 x130 -1 x132 -1 x134 -1 x136 -1 x138 -1 x140 -1 x142 -1 x144 -1 x146 -1 x148 -1 x150 -1 x152 -1 x154 -1 x156 -1 x158 -1 x160 >= -10;
+1 x125 +1 x127 +1 x129 +1 x131 +1 x133 +1 x135 +1 x137 +1 x139 +1 x141 +1 x143 +1 x145 +1 x147 +1 x149 +1 x151 +1 x153 +1 x155 +1 x157 +1 x159 +1 x161 >= 9;
-1 x125 -1 x127 -1 x129 -1 x131 -1 x133 -1 x135 -1 x137 -1 x139 -1 x141 -1 x143 -1 x145 -1 x147 -1 x149 -1 x151 -1 x153 -1 x155 -1 x157 -1 x159 -1 x161 >= -10;
+1 x126 +1 x128 +1 x130 +1 x132 +1 x134 +1 x136 +1 x138 +1 x140 +1 x142 +1 x144 +1 x146 +1 x148 +1 x150 +1 x152 +1 x154 +1 x156 +1 x158 +1 x160 +1 x162 >= 9;
-1 x126 -1 x128 -1 x130 -1 x132 -1 x134 -1 x136 -1 x138 -1 x140 -1 x142 -1 x144 -1 x146 -1 x148 -1 x150 -1 x152 -1 x154 -1 x156 -1 x158 -1 x160 -1 x162 >= -10;
+1 x127 +1 x129 +1 x131 +1 x133 +1 x135 +1 x137 +1 x139 +1 x141 +1 x143 +1 x145 +1 x147 +1 x149 +1 x151 +1 x153 +1 x155 +1 x157 +1 x159 +1 x161 +1 x163 >= 9;
-1 x127 -1 x129 -1 x131 -1 x133 -1 x135 -1 x137 -1 x139 -1 x141 -1 x143 -1 x145 -1 x147 -1 x149 -1 x151 -1 x153 -1 x155 -1 x157 -1 x159 -1 x161 -1 x163 >= -10;
+1 x128 +1 x130 +1 x132 +1 x134 +1 x136 +1 x138 +1 x140 +1 x142 +1 x144 +1 x146 +1 x148 +1 x150 +1 x152 +1 x154 +1 x156 +1 x158 +1 x160 +1 x162 +1 x164 >= 9;
-1 x128 -1 x130 -1 x132 -1 x134 -1 x136 -1 x138 -1 x140 -1 x142 -1 x144 -1 x146 -1 x148 -1 x150 -1 x152 -1 x154 -1 x156 -1 x158 -1 x160 -1 x162 -1 x164 >= -10;
+1 x129 +1 x131 +1 x133 +1 x135 +1 x137 +1 x139 +1 x141 +1 x143 +1 x145 +1 x147 +1 x149 +1 x151 +1 x153 +1 x155 +1 x157 +1 x159 +1 x161 +1 x163 +1 x165 >= 9;
-1 x129 -1 x131 -1 x133 -1 x135 -1 x137 -1 x139 -1 x141 -1 x143 -1 x145 -1 x147 -1 x149 -1 x151 -1 x153 -1 x155 -1 x157 -1 x159 -1 x161 -1 x163 -1 x165 >= -10;
+1 x130 +1 x132 +1 x134 +1 x136 +1 x138 +1 x140 +1 x142 +1 x144 +1 x146 +1 x148 +1 x150 +1 x152 +1 x154 +1 x156 +1 x158 +1 x160 +1 x162 +1 x164 +1 x166 >= 9;
-1 x130 -1 x132 -1 x134 -1 x136 -1 x138 -1 x140 -1 x142 -1 x144 -1 x146 -1 x148 -1 x150 -1 x152 -1 x154 -1 x156 -1 x158 -1 x160 -1 x162 -1 x164 -1 x166 >= -10;
+1 x131 +1 x133 +1 x135 +1 x137 +1 x139 +1 x141 +1 x143 +1 x145 +1 x147 +1 x149 +1 x151 +1 x153 +1 x155 +1 x157 +1 x159 +1 x161 +1 x163 +1 x165 +1 x167 >= 9;
-1 x131 -1 x133 -1 x135 -1 x137 -1 x139 -1 x141 -1 x143 -1 x145 -1 x147 -1 x149 -1 x151 -1 x153 -1 x155 -1 x157 -1 x159 -1 x161 -1 x163 -1 x165 -1 x167 >= -10;
+1 x132 +1 x134 +1 x136 +1 x138 +1 x140 +1 x142 +1 x144 +1 x146 +1 x148 +1 x150 +1 x152 +1 x154 +1 x156 +1 x158 +1 x160 +1 x162 +1 x164 +1 x166 +1 x168 >= 9;
-1 x132 -1 x134 -1 x136 -1 x138 -1 x140 -1 x142 -1 x144 -1 x146 -1 x148 -1 x150 -1 x152 -1 x154 -1 x156 -1 x158 -1 x160 -1 x162 -1 x164 -1 x166 -1 x168 >= -10;
+1 x133 +1 x135 +1 x137 +1 x139 +1 x141 +1 x143 +1 x145 +1 x147 +1 x149 +1 x151 +1 x153 +1 x155 +1 x157 +1 x159 +1 x161 +1 x163 +1 x165 +1 x167 +1 x169 >= 9;
-1 x133 -1 x135 -1 x137 -1 x139 -1 x141 -1 x143 -1 x145 -1 x147 -1 x149 -1 x151 -1 x153 -1 x155 -1 x157 -1 x159 -1 x161 -1 x163 -1 x165 -1 x167 -1 x169 >= -10;
+1 x134 +1 x136 +1 x138 +1 x140 +1 x142 +1 x144 +1 x146 +1 x148 +1 x150 +1 x152 +1 x154 +1 x156 +1 x158 +1 x160 +1 x162 +1 x164 +1 x166 +1 x168 +1 x170 >= 9;
-1 x134 -1 x136 -1 x138 -1 x140 -1 x142 -1 x144 -1 x146 -1 x148 -1 x150 -1 x152 -1 x154 -1 x156 -1 x158 -1 x160 -1 x162 -1 x164 -1 x166 -1 x168 -1 x170 >= -10;
+1 x135 +1 x137 +1 x139 +1 x141 +1 x143 +1 x145 +1 x147 +1 x149 +1 x151 +1 x153 +1 x155 +1 x157 +1 x159 +1 x161 +1 x163 +1 x165 +1 x167 +1 x169 +1 x171 >= 9;
-1 x135 -1 x137 -1 x139 -1 x141 -1 x143 -1 x145 -1 x147 -1 x149 -1 x151 -1 x153 -1 x155 -1 x157 -1 x159 -1 x161 -1 x163 -1 x165 -1 x167 -1 x169 -1 x171 >= -10;
+1 x136 +1 x138 +1 x140 +1 x142 +1 x144 +1 x146 +1 x148 +1 x150 +1 x152 +1 x154 +1 x156 +1 x158 +1 x160 +1 x162 +1 x164 +1 x166 +1 x168 +1 x170 +1 x172 >= 9;
-1 x136 -1 x138 -1 x140 -1 x142 -1 x144 -1 x146 -1 x148 -1 x150 -1 x152 -1 x154 -1 x156 -1 x158 -1 x160 -1 x162 -1 x164 -1 x166 -1 x168 -1 x170 -1 x172 >= -10;
+1 x137 +1 x139 +1 x141 +1 x143 +1 x145 +1 x147 +1 x149 +1 x151 +1 x153 +1 x155 +1 x157 +1 x159 +1 x161 +1 x163 +1 x165 +1 x167 +1 x169 +1 x171 +1 x173 >= 9;
-1 x137 -1 x139 -1 x141 -1 x143 -1 x145 -1 x147 -1 x149 -1 x151 -1 x153 -1 x155 -1 x157 -1 x159 -1 x161 -1 x163 -1 x165 -1 x167 -1 x169 -1 x171 -1 x173 >= -10;
+1 x138 +1 x140 +1 x142 +1 x144 +1 x146 +1 x148 +1 x150 +1 x152 +1 x154 +1 x156 +1 x158 +1 x160 +1 x162 +1 x164 +1 x166 +1 x168 +1 x170 +1 x172 +1 x174 >= 9;
-1 x138 -1 x140 -1 x142 -1 x144 -1 x146 -1 x148 -1 x150 -1 x152 -1 x154 -1 x156 -1 x158 -1 x160 -1 x162 -1 x164 -1 x166 -1 x168 -1 x170 -1 x172 -1 x174 >= -10;
+1 x139 +1 x141 +1 x143 +1 x145 +1 x147 +1 x149 +1 x151 +1 x153 +1 x155 +1 x157 +1 x159 +1 x161 +1 x163 +1 x165 +1 x167 +1 x169 +1 x171 +1 x173 +1 x175 >= 9;
-1 x139 -1 x141 -1 x143 -1 x145 -1 x147 -1 x149 -1 x151 -1 x153 -1 x155 -1 x157 -1 x159 -1 x161 -1 x163 -1 x165 -1 x167 -1 x169 -1 x171 -1 x173 -1 x175 >= -10;
+1 x140 +1 x142 +1 x144 +1 x146 +1 x148 +1 x150 +1 x152 +1 x154 +1 x156 +1 x158 +1 x160 +1 x162 +1 x164 +1 x166 +1 x168 +1 x170 +1 x172 +1 x174 +1 x176 >= 9;
-1 x140 -1 x142 -1 x144 -1 x146 -1 x148 -1 x150 -1 x152 -1 x154 -1 x156 -1 x158 -1 x160 -1 x162 -1 x164 -1 x166 -1 x168 -1 x170 -1 x172 -1 x174 -1 x176 >= -10;
+1 x141 +1 x143 +1 x145 +1 x147 +1 x149 +1 x151 +1 x153 +1 x155 +1 x157 +1 x159 +1 x161 +1 x163 +1 x165 +1 x167 +1 x169 +1 x171 +1 x173 +1 x175 +1 x177 >= 9;
-1 x141 -1 x143 -1 x145 -1 x147 -1 x149 -1 x151 -1 x153 -1 x155 -1 x157 -1 x159 -1 x161 -1 x163 -1 x165 -1 x167 -1 x169 -1 x171 -1 x173 -1 x175 -1 x177 >= -10;
+1 x142 +1 x144 +1 x146 +1 x148 +1 x150 +1 x152 +1 x154 +1 x156 +1 x158 +1 x160 +1 x162 +1 x164 +1 x166 +1 x168 +1 x170 +1 x172 +1 x174 +1 x176 +1 x178 >= 9;
-1 x142 -1 x144 -1 x146 -1 x148 -1 x150 -1 x152 -1 x154 -1 x156 -1 x158 -1 x160 -1 x162 -1 x164 -1 x166 -1 x168 -1 x170 -1 x172 -1 x174 -1 x176 -1 x178 >= -10;
+1 x143 +1 x145 +1 x147 +1 x149 +1 x151 +1 x153 +1 x155 +1 x157 +1 x159 +1 x161 +1 x163 +1 x165 +1 x167 +1 x169 +1 x171 +1 x173 +1 x175 +1 x177 +1 x179 >= 9;
-1 x143 -1 x145 -1 x147 -1 x149 -1 x151 -1 x153 -1 x155 -1 x157 -1 x159 -1 x161 -1 x163 -1 x165 -1 x167 -1 x169 -1 x171 -1 x173 -1 x175 -1 x177 -1 x179 >= -10;
+1 x144 +1 x146 +1 x148 +1 x150 +1 x152 +1 x154 +1 x156 +1 x158 +1 x160 +1 x162 +1 x164 +1 x166 +1 x168 +1 x170 +1 x172 +1 x174 +1 x176 +1 x178 +1 x180 >= 9;
-1 x144 -1 x146 -1 x148 -1 x150 -1 x152 -1 x154 -1 x156 -1 x158 -1 x160 -1 x162 -1 x164 -1 x166 -1 x168 -1 x170 -1 x172 -1 x174 -1 x176 -1 x178 -1 x180 >= -10;
+1 x145 +1 x147 +1 x149 +1 x151 +1 x153 +1 x155 +1 x157 +1 x159 +1 x161 +1 x163 +1 x165 +1 x167 +1 x169 +1 x171 +1 x173 +1 x175 +1 x177 +1 x179 +1 x181 >= 9;
-1 x145 -1 x147 -1 x149 -1 x151 -1 x153 -1 x155 -1 x157 -1 x159 -1 x161 -1 x163 -1 x165 -1 x167 -1 x169 -1 x171 -1 x173 -1 x175 -1 x177 -1 x179 -1 x181 >= -10;
+1 x146 +1 x148 +1 x150 +1 x152 +1 x154 +1 x156 +1 x158 +1 x160 +1 x162 +1 x164 +1 x166 +1 x168 +1 x170 +1 x172 +1 x174 +1 x176 +1 x178 +1 x180 +1 x182 >= 9;
-1 x146 -1 x148 -1 x150 -1 x152 -1 x154 -1 x156 -1 x158 -1 x160 -1 x162 -1 x164 -1 x166 -1 x168 -1 x170 -1 x172 -1 x174 -1 x176 -1 x178 -1 x180 -1 x182 >= -10;
+1 x147 +1 x149 +1 x151 +1 x153 +1 x155 +1 x157 +1 x159 +1 x161 +1 x163 +1 x165 +1 x167 +1 x169 +1 x171 +1 x173 +1 x175 +1 x177 +1 x179 +1 x181 +1 x183 >= 9;
-1 x147 -1 x149 -1 x151 -1 x153 -1 x155 -1 x157 -1 x159 -1 x161 -1 x163 -1 x165 -1 x167 -1 x169 -1 x171 -1 x173 -1 x175 -1 x177 -1 x179 -1 x181 -1 x183 >= -10;
+1 x148 +1 x150 +1 x152 +1 x154 +1 x156 +1 x158 +1 x160 +1 x162 +1 x164 +1 x166 +1 x168 +1 x170 +1 x172 +1 x174 +1 x176 +1 x178 +1 x180 +1 x182 +1 x184 >= 9;
-1 x148 -1 x150 -1 x152 -1 x154 -1 x156 -1 x158 -1 x160 -1 x162 -1 x164 -1 x166 -1 x168 -1 x170 -1 x172 -1 x174 -1 x176 -1 x178 -1 x180 -1 x182 -1 x184 >= -10;
+1 x149 +1 x151 +1 x153 +1 x155 +1 x157 +1 x159 +1 x161 +1 x163 +1 x165 +1 x167 +1 x169 +1 x171 +1 x173 +1 x175 +1 x177 +1 x179 +1 x181 +1 x183 +1 x185 >= 9;
-1 x149 -1 x151 -1 x153 -1 x155 -1 x157 -1 x159 -1 x161 -1 x163 -1 x165 -1 x167 -1 x169 -1 x171 -1 x173 -1 x175 -1 x177 -1 x179 -1 x181 -1 x183 -1 x185 >= -10;
+1 x150 +1 x152 +1 x154 +1 x156 +1 x158 +1 x160 +1 x162 +1 x164 +1 x166 +1 x168 +1 x170 +1 x172 +1 x174 +1 x176 +1 x178 +1 x180 +1 x182 +1 x184 +1 x186 >= 9;
-1 x150 -1 x152 -1 x154 -1 x156 -1 x158 -1 x160 -1 x162 -1 x164 -1 x166 -1 x168 -1 x170 -1 x172 -1 x174 -1 x176 -1 x178 -1 x180 -1 x182 -1 x184 -1 x186 >= -10;
+1 x151 +1 x153 +1 x155 +1 x157 +1 x159 +1 x161 +1 x163 +1 x165 +1 x167 +1 x169 +1 x171 +1 x173 +1 x175 +1 x177 +1 x179 +1 x181 +1 x183 +1 x185 +1 x187 >= 9;
-1 x151 -1 x153 -1 x155 -1 x157 -1 x159 -1 x161 -1 x163 -1 x165 -1 x167 -1 x169 -1 x171 -1 x173 -1 x175 -1 x177 -1 x179 -1 x181 -1 x183 -1 x185 -1 x187 >= -10;
+1 x152 +1 x154 +1 x156 +1 x158 +1 x160 +1 x162 +1 x164 +1 x166 +1 x168 +1 x170 +1 x172 +1 x174 +1 x176 +1 x178 +1 x180 +1 x182 +1 x184 +1 x186 +1 x188 >= 9;
-1 x152 -1 x154 -1 x156 -1 x158 -1 x160 -1 x162 -1 x164 -1 x166 -1 x168 -1 x170 -1 x172 -1 x174 -1 x176 -1 x178 -1 x180 -1 x182 -1 x184 -1 x186 -1 x188 >= -10;
+1 x153 +1 x155 +1 x157 +1 x159 +1 x161 +1 x163 +1 x165 +1 x167 +1 x169 +1 x171 +1 x173 +1 x175 +1 x177 +1 x179 +1 x181 +1 x183 +1 x185 +1 x187 +1 x189 >= 9;
-1 x153 -1 x155 -1 x157 -1 x159 -1 x161 -1 x163 -1 x165 -1 x167 -1 x169 -1 x171 -1 x173 -1 x175 -1 x177 -1 x179 -1 x181 -1 x183 -1 x185 -1 x187 -1 x189 >= -10;
+1 x154 +1 x156 +1 x158 +1 x160 +1 x162 +1 x164 +1 x166 +1 x168 +1 x170 +1 x172 +1 x174 +1 x176 +1 x178 +1 x180 +1 x182 +1 x184 +1 x186 +1 x188 +1 x190 >= 9;
-1 x154 -1 x156 -1 x158 -1 x160 -1 x162 -1 x164 -1 x166 -1 x168 -1 x170 -1 x172 -1 x174 -1 x176 -1 x178 -1 x180 -1 x182 -1 x184 -1 x186 -1 x188 -1 x190 >= -10;
+1 x155 +1 x157 +1 x159 +1 x161 +1 x163 +1 x165 +1 x167 +1 x169 +1 x171 +1 x173 +1 x175 +1 x177 +1 x179 +1 x181 +1 x183 +1 x185 +1 x187 +1 x189 +1 x191 >= 9;
-1 x155 -1 x157 -1 x159 -1 x161 -1 x163 -1 x165 -1 x167 -1 x169 -1 x171 -1 x173 -1 x175 -1 x177 -1 x179 -1 x181 -1 x183 -1 x185 -1 x187 -1 x189 -1 x191 >= -10;
+1 x156 +1 x158 +1 x160 +1 x162 +1 x164 +1 x166 +1 x168 +1 x170 +1 x172 +1 x174 +1 x176 +1 x178 +1 x180 +1 x182 +1 x184 +1 x186 +1 x188 +1 x190 +1 x192 >= 9;
-1 x156 -1 x158 -1 x160 -1 x162 -1 x164 -1 x166 -1 x168 -1 x170 -1 x172 -1 x174 -1 x176 -1 x178 -1 x180 -1 x182 -1 x184 -1 x186 -1 x188 -1 x190 -1 x192 >= -10;
+1 x157 +1 x159 +1 x161 +1 x163 +1 x165 +1 x167 +1 x169 +1 x171 +1 x173 +1 x175 +1 x177 +1 x179 +1 x181 +1 x183 +1 x185 +1 x187 +1 x189 +1 x191 +1 x193 >= 9;
-1 x157 -1 x159 -1 x161 -1 x163 -1 x165 -1 x167 -1 x169 -1 x171 -1 x173 -1 x175 -1 x177 -1 x179 -1 x181 -1 x183 -1 x185 -1 x187 -1 x189 -1 x191 -1 x193 >= -10;
+1 x158 +1 x160 +1 x162 +1 x164 +1 x166 +1 x168 +1 x170 +1 x172 +1 x174 +1 x176 +1 x178 +1 x180 +1 x182 +1 x184 +1 x186 +1 x188 +1 x190 +1 x192 +1 x194 >= 9;
-1 x158 -1 x160 -1 x162 -1 x164 -1 x166 -1 x168 -1 x170 -1 x172 -1 x174 -1 x176 -1 x178 -1 x180 -1 x182 -1 x184 -1 x186 -1 x188 -1 x190 -1 x192 -1 x194 >= -10;
+1 x159 +1 x161 +1 x163 +1 x165 +1 x167 +1 x169 +1 x171 +1 x173 +1 x175 +1 x177 +1 x179 +1 x181 +1 x183 +1 x185 +1 x187 +1 x189 +1 x191 +1 x193 +1 x195 >= 9;
-1 x159 -1 x161 -1 x163 -1 x165 -1 x167 -1 x169 -1 x171 -1 x173 -1 x175 -1 x177 -1 x179 -1 x181 -1 x183 -1 x185 -1 x187 -1 x189 -1 x191 -1 x193 -1 x195 >= -10;
+1 x160 +1 x162 +1 x164 +1 x166 +1 x168 +1 x170 +1 x172 +1 x174 +1 x176 +1 x178 +1 x180 +1 x182 +1 x184 +1 x186 +1 x188 +1 x190 +1 x192 +1 x194 +1 x196 >= 9;
-1 x160 -1 x162 -1 x164 -1 x166 -1 x168 -1 x170 -1 x172 -1 x174 -1 x176 -1 x178 -1 x180 -1 x182 -1 x184 -1 x186 -1 x188 -1 x190 -1 x192 -1 x194 -1 x196 >= -10;
+1 x161 +1 x163 +1 x165 +1 x167 +1 x169 +1 x171 +1 x173 +1 x175 +1 x177 +1 x179 +1 x181 +1 x183 +1 x185 +1 x187 +1 x189 +1 x191 +1 x193 +1 x195 +1 x197 >= 9;
-1 x161 -1 x163 -1 x165 -1 x167 -1 x169 -1 x171 -1 x173 -1 x175 -1 x177 -1 x179 -1 x181 -1 x183 -1 x185 -1 x187 -1 x189 -1 x191 -1 x193 -1 x195 -1 x197 >= -10;
+1 x162 +1 x164 +1 x166 +1 x168 +1 x170 +1 x172 +1 x174 +1 x176 +1 x178 +1 x180 +1 x182 +1 x184 +1 x186 +1 x188 +1 x190 +1 x192 +1 x194 +1 x196 +1 x198 >= 9;
-1 x162 -1 x164 -1 x166 -1 x168 -1 x170 -1 x172 -1 x174 -1 x176 -1 x178 -1 x180 -1 x182 -1 x184 -1 x186 -1 x188 -1 x190 -1 x192 -1 x194 -1 x196 -1 x198 >= -10;
+1 x163 +1 x165 +1 x167 +1 x169 +1 x171 +1 x173 +1 x175 +1 x177 +1 x179 +1 x181 +1 x183 +1 x185 +1 x187 +1 x189 +1 x191 +1 x193 +1 x195 +1 x197 +1 x199 >= 9;
-1 x163 -1 x165 -1 x167 -1 x169 -1 x171 -1 x173 -1 x175 -1 x177 -1 x179 -1 x181 -1 x183 -1 x185 -1 x187 -1 x189 -1 x191 -1 x193 -1 x195 -1 x197 -1 x199 >= -10;
+1 x164 +1 x166 +1 x168 +1 x170 +1 x172 +1 x174 +1 x176 +1 x178 +1 x180 +1 x182 +1 x184 +1 x186 +1 x188 +1 x190 +1 x192 +1 x194 +1 x196 +1 x198 +1 x200 >= 9;
-1 x164 -1 x166 -1 x168 -1 x170 -1 x172 -1 x174 -1 x176 -1 x178 -1 x180 -1 x182 -1 x184 -1 x186 -1 x188 -1 x190 -1 x192 -1 x194 -1 x196 -1 x198 -1 x200 >= -10;
+1 x165 +1 x167 +1 x169 +1 x171 +1 x173 +1 x175 +1 x177 +1 x179 +1 x181 +1 x183 +1 x185 +1 x187 +1 x189 +1 x191 +1 x193 +1 x195 +1 x197 +1 x199 +1 x201 >= 9;
-1 x165 -1 x167 -1 x169 -1 x171 -1 x173 -1 x175 -1 x177 -1 x179 -1 x181 -1 x183 -1 x185 -1 x187 -1 x189 -1 x191 -1 x193 -1 x195 -1 x197 -1 x199 -1 x201 >= -10;
+1 x166 +1 x168 +1 x170 +1 x172 +1 x174 +1 x176 +1 x178 +1 x180 +1 x182 +1 x184 +1 x186 +1 x188 +1 x190 +1 x192 +1 x194 +1 x196 +1 x198 +1 x200 +1 x202 >= 9;
-1 x166 -1 x168 -1 x170 -1 x172 -1 x174 -1 x176 -1 x178 -1 x180 -1 x182 -1 x184 -1 x186 -1 x188 -1 x190 -1 x192 -1 x194 -1 x196 -1 x198 -1 x200 -1 x202 >= -10;
+1 x167 +1 x169 +1 x171 +1 x173 +1 x175 +1 x177 +1 x179 +1 x181 +1 x183 +1 x185 +1 x187 +1 x189 +1 x191 +1 x193 +1 x195 +1 x197 +1 x199 +1 x201 +1 x203 >= 9;
-1 x167 -1 x169 -1 x171 -1 x173 -1 x175 -1 x177 -1 x179 -1 x181 -1 x183 -1 x185 -1 x187 -1 x189 -1 x191 -1 x193 -1 x195 -1 x197 -1 x199 -1 x201 -1 x203 >= -10;
+1 x168 +1 x170 +1 x172 +1 x174 +1 x176 +1 x178 +1 x180 +1 x182 +1 x184 +1 x186 +1 x188 +1 x190 +1 x192 +1 x194 +1 x196 +1 x198 +1 x200 +1 x202 +1 x204 >= 9;
-1 x168 -1 x170 -1 x172 -1 x174 -1 x176 -1 x178 -1 x180 -1 x182 -1 x184 -1 x186 -1 x188 -1 x190 -1 x192 -1 x194 -1 x196 -1 x198 -1 x200 -1 x202 -1 x204 >= -10;
+1 x169 +1 x171 +1 x173 +1 x175 +1 x177 +1 x179 +1 x181 +1 x183 +1 x185 +1 x187 +1 x189 +1 x191 +1 x193 +1 x195 +1 x197 +1 x199 +1 x201 +1 x203 +1 x205 >= 9;
-1 x169 -1 x171 -1 x173 -1 x175 -1 x177 -1 x179 -1 x181 -1 x183 -1 x185 -1 x187 -1 x189 -1 x191 -1 x193 -1 x195 -1 x197 -1 x199 -1 x201 -1 x203 -1 x205 >= -10;
+1 x170 +1 x172 +1 x174 +1 x176 +1 x178 +1 x180 +1 x182 +1 x184 +1 x186 +1 x188 +1 x190 +1 x192 +1 x194 +1 x196 +1 x198 +1 x200 +1 x202 +1 x204 +1 x206 >= 9;
-1 x170 -1 x172 -1 x174 -1 x176 -1 x178 -1 x180 -1 x182 -1 x184 -1 x186 -1 x188 -1 x190 -1 x192 -1 x194 -1 x196 -1 x198 -1 x200 -1 x202 -1 x204 -1 x206 >= -10;
+1 x171 +1 x173 +1 x175 +1 x177 +1 x179 +1 x181 +1 x183 +1 x185 +1 x187 +1 x189 +1 x191 +1 x193 +1 x195 +1 x197 +1 x199 +1 x201 +1 x203 +1 x205 +1 x207 >= 9;
-1 x171 -1 x173 -1 x175 -1 x177 -1 x179 -1 x181 -1 x183 -1 x185 -1 x187 -1 x189 -1 x191 -1 x193 -1 x195 -1 x197 -1 x199 -1 x201 -1 x203 -1 x205 -1 x207 >= -10;
+1 x172 +1 x174 +1 x176 +1 x178 +1 x180 +1 x182 +1 x184 +1 x186 +1 x188 +1 x190 +1 x192 +1 x194 +1 x196 +1 x198 +1 x200 +1 x202 +1 x204 +1 x206 +1 x208 >= 9;
-1 x172 -1 x174 -1 x176 -1 x178 -1 x180 -1 x182 -1 x184 -1 x186 -1 x188 -1 x190 -1 x192 -1 x194 -1 x196 -1 x198 -1 x200 -1 x202 -1 x204 -1 x206 -1 x208 >= -10;
+1 x173 +1 x175 +1 x177 +1 x179 +1 x181 +1 x183 +1 x185 +1 x187 +1 x189 +1 x191 +1 x193 +1 x195 +1 x197 +1 x199 +1 x201 +1 x203 +1 x205 +1 x207 +1 x209 >= 9;
-1 x173 -1 x175 -1 x177 -1 x179 -1 x181 -1 x183 -1 x185 -1 x187 -1 x189 -1 x191 -1 x193 -1 x195 -1 x197 -1 x199 -1 x201 -1 x203 -1 x205 -1 x207 -1 x209 >= -10;
+1 x174 +1 x176 +1 x178 +1 x180 +1 x182 +1 x184 +1 x186 +1 x188 +1 x190 +1 x192 +1 x194 +1 x196 +1 x198 +1 x200 +1 x202 +1 x204 +1 x206 +1 x208 +1 x210 >= 9;
-1 x174 -1 x176 -1 x178 -1 x180 -1 x182 -1 x184 -1 x186 -1 x188 -1 x190 -1 x192 -1 x194 -1 x196 -1 x198 -1 x200 -1 x202 -1 x204 -1 x206 -1 x208 -1 x210 >= -10;
+1 x175 +1 x177 +1 x179 +1 x181 +1 x183 +1 x185 +1 x187 +1 x189 +1 x191 +1 x193 +1 x195 +1 x197 +1 x199 +1 x201 +1 x203 +1 x205 +1 x207 +1 x209 +1 x211 >= 9;
-1 x175 -1 x177 -1 x179 -1 x181 -1 x183 -1 x185 -1 x187 -1 x189 -1 x191 -1 x193 -1 x195 -1 x197 -1 x199 -1 x201 -1 x203 -1 x205 -1 x207 -1 x209 -1 x211 >= -10;
+1 x176 +1 x178 +1 x180 +1 x182 +1 x184 +1 x186 +1 x188 +1 x190 +1 x192 +1 x194 +1 x196 +1 x198 +1 x200 +1 x202 +1 x204 +1 x206 +1 x208 +1 x210 +1 x212 >= 9;
-1 x176 -1 x178 -1 x180 -1 x182 -1 x184 -1 x186 -1 x188 -1 x190 -1 x192 -1 x194 -1 x196 -1 x198 -1 x200 -1 x202 -1 x204 -1 x206 -1 x208 -1 x210 -1 x212 >= -10;
+1 x177 +1 x179 +1 x181 +1 x183 +1 x185 +1 x187 +1 x189 +1 x191 +1 x193 +1 x195 +1 x197 +1 x199 +1 x201 +1 x203 +1 x205 +1 x207 +1 x209 +1 x211 +1 x213 >= 9;
-1 x177 -1 x179 -1 x181 -1 x183 -1 x185 -1 x187 -1 x189 -1 x191 -1 x193 -1 x195 -1 x197 -1 x199 -1 x201 -1 x203 -1 x205 -1 x207 -1 x209 -1 x211 -1 x213 >= -10;
+1 x178 +1 x180 +1 x182 +1 x184 +1 x186 +1 x188 +1 x190 +1 x192 +1 x194 +1 x196 +1 x198 +1 x200 +1 x202 +1 x204 +1 x206 +1 x208 +1 x210 +1 x212 +1 x214 >= 9;
-1 x178 -1 x180 -1 x182 -1 x184 -1 x186 -1 x188 -1 x190 -1 x192 -1 x194 -1 x196 -1 x198 -1 x200 -1 x202 -1 x204 -1 x206 -1 x208 -1 x210 -1 x212 -1 x214 >= -10;
+1 x179 +1 x181 +1 x183 +1 x185 +1 x187 +1 x189 +1 x191 +1 x193 +1 x195 +1 x197 +1 x199 +1 x201 +1 x203 +1 x205 +1 x207 +1 x209 +1 x211 +1 x213 +1 x215 >= 9;
-1 x179 -1 x181 -1 x183 -1 x185 -1 x187 -1 x189 -1 x191 -1 x193 -1 x195 -1 x197 -1 x199 -1 x201 -1 x203 -1 x205 -1 x207 -1 x209 -1 x211 -1 x213 -1 x215 >= -10;
+1 x180 +1 x182 +1 x184 +1 x186 +1 x188 +1 x190 +1 x192 +1 x194 +1 x196 +1 x198 +1 x200 +1 x202 +1 x204 +1 x206 +1 x208 +1 x210 +1 x212 +1 x214 +1 x216 >= 9;
-1 x180 -1 x182 -1 x184 -1 x186 -1 x188 -1 x190 -1 x192 -1 x194 -1 x196 -1 x198 -1 x200 -1 x202 -1 x204 -1 x206 -1 x208 -1 x210 -1 x212 -1 x214 -1 x216 >= -10;
+1 x181 +1 x183 +1 x185 +1 x187 +1 x189 +1 x191 +1 x193 +1 x195 +1 x197 +1 x199 +1 x201 +1 x203 +1 x205 +1 x207 +1 x209 +1 x211 +1 x213 +1 x215 +1 x217 >= 9;
-1 x181 -1 x183 -1 x185 -1 x187 -1 x189 -1 x191 -1 x193 -1 x195 -1 x197 -1 x199 -1 x201 -1 x203 -1 x205 -1 x207 -1 x209 -1 x211 -1 x213 -1 x215 -1 x217 >= -10;
+1 x182 +1 x184 +1 x186 +1 x188 +1 x190 +1 x192 +1 x194 +1 x196 +1 x198 +1 x200 +1 x202 +1 x204 +1 x206 +1 x208 +1 x210 +1 x212 +1 x214 +1 x216 +1 x218 >= 9;
-1 x182 -1 x184 -1 x186 -1 x188 -1 x190 -1 x192 -1 x194 -1 x196 -1 x198 -1 x200 -1 x202 -1 x204 -1 x206 -1 x208 -1 x210 -1 x212 -1 x214 -1 x216 -1 x218 >= -10;
+1 x183 +1 x185 +1 x187 +1 x189 +1 x191 +1 x193 +1 x195 +1 x197 +1 x199 +1 x201 +1 x203 +1 x205 +1 x207 +1 x209 +1 x211 +1 x213 +1 x215 +1 x217 +1 x219 >= 9;
-1 x183 -1 x185 -1 x187 -1 x189 -1 x191 -1 x193 -1 x195 -1 x197 -1 x199 -1 x201 -1 x203 -1 x205 -1 x207 -1 x209 -1 x211 -1 x213 -1 x215 -1 x217 -1 x219 >= -10;
+1 x184 +1 x186 +1 x188 +1 x190 +1 x192 +1 x194 +1 x196 +1 x198 +1 x200 +1 x202 +1 x204 +1 x206 +1 x208 +1 x210 +1 x212 +1 x214 +1 x216 +1 x218 +1 x220 >= 9;
-1 x184 -1 x186 -1 x188 -1 x190 -1 x192 -1 x194 -1 x196 -1 x198 -1 x200 -1 x202 -1 x204 -1 x206 -1 x208 -1 x210 -1 x212 -1 x214 -1 x216 -1 x218 -1 x220 >= -10;
+1 x185 +1 x187 +1 x189 +1 x191 +1 x193 +1 x195 +1 x197 +1 x199 +1 x201 +1 x203 +1 x205 +1 x207 +1 x209 +1 x211 +1 x213 +1 x215 +1 x217 +1 x219 +1 x221 >= 9;
-1 x185 -1 x187 -1 x189 -1 x191 -1 x193 -1 x195 -1 x197 -1 x199 -1 x201 -1 x203 -1 x205 -1 x207 -1 x209 -1 x211 -1 x213 -1 x215 -1 x217 -1 x219 -1 x221 >= -10;
+1 x186 +1 x188 +1 x190 +1 x192 +1 x194 +1 x196 +1 x198 +1 x200 +1 x202 +1 x204 +1 x206 +1 x208 +1 x210 +1 x212 +1 x214 +1 x216 +1 x218 +1 x220 +1 x222 >= 9;
-1 x186 -1 x188 -1 x190 -1 x192 -1 x194 -1 x196 -1 x198 -1 x200 -1 x202 -1 x204 -1 x206 -1 x208 -1 x210 -1 x212 -1 x214 -1 x216 -1 x218 -1 x220 -1 x222 >= -10;
+1 x187 +1 x189 +1 x191 +1 x193 +1 x195 +1 x197 +1 x199 +1 x201 +1 x203 +1 x205 +1 x207 +1 x209 +1 x211 +1 x213 +1 x215 +1 x217 +1 x219 +1 x221 +1 x223 >= 9;
-1 x187 -1 x189 -1 x191 -1 x193 -1 x195 -1 x197 -1 x199 -1 x201 -1 x203 -1 x205 -1 x207 -1 x209 -1 x211 -1 x213 -1 x215 -1 x217 -1 x219 -1 x221 -1 x223 >= -10;
+1 x188 +1 x190 +1 x192 +1 x194 +1 x196 +1 x198 +1 x200 +1 x202 +1 x204 +1 x206 +1 x208 +1 x210 +1 x212 +1 x214 +1 x216 +1 x218 +1 x220 +1 x222 +1 x224 >= 9;
-1 x188 -1 x190 -1 x192 -1 x194 -1 x196 -1 x198 -1 x200 -1 x202 -1 x204 -1 x206 -1 x208 -1 x210 -1 x212 -1 x214 -1 x216 -1 x218 -1 x220 -1 x222 -1 x224 >= -10;
+1 x189 +1 x191 +1 x193 +1 x195 +1 x197 +1 x199 +1 x201 +1 x203 +1 x205 +1 x207 +1 x209 +1 x211 +1 x213 +1 x215 +1 x217 +1 x219 +1 x221 +1 x223 +1 x225 >= 9;
-1 x189 -1 x191 -1 x193 -1 x195 -1 x197 -1 x199 -1 x201 -1 x203 -1 x205 -1 x207 -1 x209 -1 x211 -1 x213 -1 x215 -1 x217 -1 x219 -1 x221 -1 x223 -1 x225 >= -10;
+1 x190 +1 x192 +1 x194 +1 x196 +1 x198 +1 x200 +1 x202 +1 x204 +1 x206 +1 x208 +1 x210 +1 x212 +1 x214 +1 x216 +1 x218 +1 x220 +1 x222 +1 x224 +1 x226 >= 9;
-1 x190 -1 x192 -1 x194 -1 x196 -1 x198 -1 x200 -1 x202 -1 x204 -1 x206 -1 x208 -1 x210 -1 x212 -1 x214 -1 x216 -1 x218 -1 x220 -1 x222 -1 x224 -1 x226 >= -10;
+1 x191 +1 x193 +1 x195 +1 x197 +1 x199 +1 x201 +1 x203 +1 x205 +1 x207 +1 x209 +1 x211 +1 x213 +1 x215 +1 x217 +1 x219 +1 x221 +1 x223 +1 x225 +1 x227 >= 9;
-1 x191 -1 x193 -1 x195 -1 x197 -1 x199 -1 x201 -1 x203 -1 x205 -1 x207 -1 x209 -1 x211 -1 x213 -1 x215 -1 x217 -1 x219 -1 x221 -1 x223 -1 x225 -1 x227 >= -10;
+1 x192 +1 x194 +1 x196 +1 x198 +1 x200 +1 x202 +1 x204 +1 x206 +1 x208 +1 x210 +1 x212 +1 x214 +1 x216 +1 x218 +1 x220 +1 x222 +1 x224 +1 x226 +1 x228 >= 9;
-1 x192 -1 x194 -1 x196 -1 x198 -1 x200 -1 x202 -1 x204 -1 x206 -1 x208 -1 x210 -1 x212 -1 x214 -1 x216 -1 x218 -1 x220 -1 x222 -1 x224 -1 x226 -1 x228 >= -10;
+1 x193 +1 x195 +1 x197 +1 x199 +1 x201 +1 x203 +1 x205 +1 x207 +1 x209 +1 x211 +1 x213 +1 x215 +1 x217 +1 x219 +1 x221 +1 x223 +1 x225 +1 x227 +1 x229 >= 9;
-1 x193 -1 x195 -1 x197 -1 x199 -1 x201 -1 x203 -1 x205 -1 x207 -1 x209 -1 x211 -1 x213 -1 x215 -1 x217 -1 x219 -1 x221 -1 x223 -1 x225 -1 x227 -1 x229 >= -10;
+1 x194 +1 x196 +1 x198 +1 x200 +1 x202 +1 x204 +1 x206 +1 x208 +1 x210 +1 x212 +1 x214 +1 x216 +1 x218 +1 x220 +1 x222 +1 x224 +1 x226 +1 x228 +1 x230 >= 9;
-1 x194 -1 x196 -1 x198 -1 x200 -1 x202 -1 x204 -1 x206 -1 x208 -1 x210 -1 x212 -1 x214 -1 x216 -1 x218 -1 x220 -1 x222 -1 x224 -1 x226 -1 x228 -1 x230 >= -10;
+1 x195 +1 x197 +1 x199 +1 x201 +1 x203 +1 x205 +1 x207 +1 x209 +1 x211 +1 x213 +1 x215 +1 x217 +1 x219 +1 x221 +1 x223 +1 x225 +1 x227 +1 x229 +1 x231 >= 9;
-1 x195 -1 x197 -1 x199 -1 x201 -1 x203 -1 x205 -1 x207 -1 x209 -1 x211 -1 x213 -1 x215 -1 x217 -1 x219 -1 x221 -1 x223 -1 x225 -1 x227 -1 x229 -1 x231 >= -10;
+1 x196 +1 x198 +1 x200 +1 x202 +1 x204 +1 x206 +1 x208 +1 x210 +1 x212 +1 x214 +1 x216 +1 x218 +1 x220 +1 x222 +1 x224 +1 x226 +1 x228 +1 x230 +1 x232 >= 9;
-1 x196 -1 x198 -1 x200 -1 x202 -1 x204 -1 x206 -1 x208 -1 x210 -1 x212 -1 x214 -1 x216 -1 x218 -1 x220 -1 x222 -1 x224 -1 x226 -1 x228 -1 x230 -1 x232 >= -10;
+1 x197 +1 x199 +1 x201 +1 x203 +1 x205 +1 x207 +1 x209 +1 x211 +1 x213 +1 x215 +1 x217 +1 x219 +1 x221 +1 x223 +1 x225 +1 x227 +1 x229 +1 x231 +1 x233 >= 9;
-1 x197 -1 x199 -1 x201 -1 x203 -1 x205 -1 x207 -1 x209 -1 x211 -1 x213 -1 x215 -1 x217 -1 x219 -1 x221 -1 x223 -1 x225 -1 x227 -1 x229 -1 x231 -1 x233 >= -10;
+1 x198 +1 x200 +1 x202 +1 x204 +1 x206 +1 x208 +1 x210 +1 x212 +1 x214 +1 x216 +1 x218 +1 x220 +1 x222 +1 x224 +1 x226 +1 x228 +1 x230 +1 x232 +1 x234 >= 9;
-1 x198 -1 x200 -1 x202 -1 x204 -1 x206 -1 x208 -1 x210 -1 x212 -1 x214 -1 x216 -1 x218 -1 x220 -1 x222 -1 x224 -1 x226 -1 x228 -1 x230 -1 x232 -1 x234 >= -10;
+1 x199 +1 x201 +1 x203 +1 x205 +1 x207 +1 x209 +1 x211 +1 x213 +1 x215 +1 x217 +1 x219 +1 x221 +1 x223 +1 x225 +1 x227 +1 x229 +1 x231 +1 x233 +1 x235 >= 9;
-1 x199 -1 x201 -1 x203 -1 x205 -1 x207 -1 x209 -1 x211 -1 x213 -1 x215 -1 x217 -1 x219 -1 x221 -1 x223 -1 x225 -1 x227 -1 x229 -1 x231 -1 x233 -1 x235 >= -10;
+1 x200 +1 x202 +1 x204 +1 x206 +1 x208 +1 x210 +1 x212 +1 x214 +1 x216 +1 x218 +1 x220 +1 x222 +1 x224 +1 x226 +1 x228 +1 x230 +1 x232 +1 x234 +1 x236 >= 9;
-1 x200 -1 x202 -1 x204 -1 x206 -1 x208 -1 x210 -1 x212 -1 x214 -1 x216 -1 x218 -1 x220 -1 x222 -1 x224 -1 x226 -1 x228 -1 x230 -1 x232 -1 x234 -1 x236 >= -10;
+1 x201 +1 x203 +1 x205 +1 x207 +1 x209 +1 x211 +1 x213 +1 x215 +1 x217 +1 x219 +1 x221 +1 x223 +1 x225 +1 x227 +1 x229 +1 x231 +1 x233 +1 x235 +1 x237 >= 9;
-1 x201 -1 x203 -1 x205 -1 x207 -1 x209 -1 x211 -1 x213 -1 x215 -1 x217 -1 x219 -1 x221 -1 x223 -1 x225 -1 x227 -1 x229 -1 x231 -1 x233 -1 x235 -1 x237 >= -10;
+1 x202 +1 x204 +1 x206 +1 x208 +1 x210 +1 x212 +1 x214 +1 x216 +1 x218 +1 x220 +1 x222 +1 x224 +1 x226 +1 x228 +1 x230 +1 x232 +1 x234 +1 x236 +1 x238 >= 9;
-1 x202 -1 x204 -1 x206 -1 x208 -1 x210 -1 x212 -1 x214 -1 x216 -1 x218 -1 x220 -1 x222 -1 x224 -1 x226 -1 x228 -1 x230 -1 x232 -1 x234 -1 x236 -1 x238 >= -10;
+1 x203 +1 x205 +1 x207 +1 x209 +1 x211 +1 x213 +1 x215 +1 x217 +1 x219 +1 x221 +1 x223 +1 x225 +1 x227 +1 x229 +1 x231 +1 x233 +1 x235 +1 x237 +1 x239 >= 9;
-1 x203 -1 x205 -1 x207 -1 x209 -1 x211 -1 x213 -1 x215 -1 x217 -1 x219 -1 x221 -1 x223 -1 x225 -1 x227 -1 x229 -1 x231 -1 x233 -1 x235 -1 x237 -1 x239 >= -10;
+1 x204 +1 x206 +1 x208 +1 x210 +1 x212 +1 x214 +1 x216 +1 x218 +1 x220 +1 x222 +1 x224 +1 x226 +1 x228 +1 x230 +1 x232 +1 x234 +1 x236 +1 x238 +1 x240 >= 9;
-1 x204 -1 x206 -1 x208 -1 x210 -1 x212 -1 x214 -1 x216 -1 x218 -1 x220 -1 x222 -1 x224 -1 x226 -1 x228 -1 x230 -1 x232 -1 x234 -1 x236 -1 x238 -1 x240 >= -10;
+1 x205 +1 x207 +1 x209 +1 x211 +1 x213 +1 x215 +1 x217 +1 x219 +1 x221 +1 x223 +1 x225 +1 x227 +1 x229 +1 x231 +1 x233 +1 x235 +1 x237 +1 x239 +1 x241 >= 9;
-1 x205 -1 x207 -1 x209 -1 x211 -1 x213 -1 x215 -1 x217 -1 x219 -1 x221 -1 x223 -1 x225 -1 x227 -1 x229 -1 x231 -1 x233 -1 x235 -1 x237 -1 x239 -1 x241 >= -10;
+1 x206 +1 x208 +1 x210 +1 x212 +1 x214 +1 x216 +1 x218 +1 x220 +1 x222 +1 x224 +1 x226 +1 x228 +1 x230 +1 x232 +1 x234 +1 x236 +1 x238 +1 x240 +1 x242 >= 9;
-1 x206 -1 x208 -1 x210 -1 x212 -1 x214 -1 x216 -1 x218 -1 x220 -1 x222 -1 x224 -1 x226 -1 x228 -1 x230 -1 x232 -1 x234 -1 x236 -1 x238 -1 x240 -1 x242 >= -10;
+1 x207 +1 x209 +1 x211 +1 x213 +1 x215 +1 x217 +1 x219 +1 x221 +1 x223 +1 x225 +1 x227 +1 x229 +1 x231 +1 x233 +1 x235 +1 x237 +1 x239 +1 x241 +1 x243 >= 9;
-1 x207 -1 x209 -1 x211 -1 x213 -1 x215 -1 x217 -1 x219 -1 x221 -1 x223 -1 x225 -1 x227 -1 x229 -1 x231 -1 x233 -1 x235 -1 x237 -1 x239 -1 x241 -1 x243 >= -10;
+1 x208 +1 x210 +1 x212 +1 x214 +1 x216 +1 x218 +1 x220 +1 x222 +1 x224 +1 x226 +1 x228 +1 x230 +1 x232 +1 x234 +1 x236 +1 x238 +1 x240 +1 x242 +1 x244 >= 9;
-1 x208 -1 x210 -1 x212 -1 x214 -1 x216 -1 x218 -1 x220 -1 x222 -1 x224 -1 x226 -1 x228 -1 x230 -1 x232 -1 x234 -1 x236 -1 x238 -1 x240 -1 x242 -1 x244 >= -10;
+1 x209 +1 x211 +1 x213 +1 x215 +1 x217 +1 x219 +1 x221 +1 x223 +1 x225 +1 x227 +1 x229 +1 x231 +1 x233 +1 x235 +1 x237 +1 x239 +1 x241 +1 x243 +1 x245 >= 9;
-1 x209 -1 x211 -1 x213 -1 x215 -1 x217 -1 x219 -1 x221 -1 x223 -1 x225 -1 x227 -1 x229 -1 x231 -1 x233 -1 x235 -1 x237 -1 x239 -1 x241 -1 x243 -1 x245 >= -10;
+1 x210 +1 x212 +1 x214 +1 x216 +1 x218 +1 x220 +1 x222 +1 x224 +1 x226 +1 x228 +1 x230 +1 x232 +1 x234 +1 x236 +1 x238 +1 x240 +1 x242 +1 x244 +1 x246 >= 9;
-1 x210 -1 x212 -1 x214 -1 x216 -1 x218 -1 x220 -1 x222 -1 x224 -1 x226 -1 x228 -1 x230 -1 x232 -1 x234 -1 x236 -1 x238 -1 x240 -1 x242 -1 x244 -1 x246 >= -10;
+1 x211 +1 x213 +1 x215 +1 x217 +1 x219 +1 x221 +1 x223 +1 x225 +1 x227 +1 x229 +1 x231 +1 x233 +1 x235 +1 x237 +1 x239 +1 x241 +1 x243 +1 x245 +1 x247 >= 9;
-1 x211 -1 x213 -1 x215 -1 x217 -1 x219 -1 x221 -1 x223 -1 x225 -1 x227 -1 x229 -1 x231 -1 x233 -1 x235 -1 x237 -1 x239 -1 x241 -1 x243 -1 x245 -1 x247 >= -10;
+1 x212 +1 x214 +1 x216 +1 x218 +1 x220 +1 x222 +1 x224 +1 x226 +1 x228 +1 x230 +1 x232 +1 x234 +1 x236 +1 x238 +1 x240 +1 x242 +1 x244 +1 x246 +1 x248 >= 9;
-1 x212 -1 x214 -1 x216 -1 x218 -1 x220 -1 x222 -1 x224 -1 x226 -1 x228 -1 x230 -1 x232 -1 x234 -1 x236 -1 x238 -1 x240 -1 x242 -1 x244 -1 x246 -1 x248 >= -10;
+1 x213 +1 x215 +1 x217 +1 x219 +1 x221 +1 x223 +1 x225 +1 x227 +1 x229 +1 x231 +1 x233 +1 x235 +1 x237 +1 x239 +1 x241 +1 x243 +1 x245 +1 x247 +1 x249 >= 9;
-1 x213 -1 x215 -1 x217 -1 x219 -1 x221 -1 x223 -1 x225 -1 x227 -1 x229 -1 x231 -1 x233 -1 x235 -1 x237 -1 x239 -1 x241 -1 x243 -1 x245 -1 x247 -1 x249 >= -10;
+1 x214 +1 x216 +1 x218 +1 x220 +1 x222 +1 x224 +1 x226 +1 x228 +1 x230 +1 x232 +1 x234 +1 x236 +1 x238 +1 x240 +1 x242 +1 x244 +1 x246 +1 x248 +1 x250 >= 9;
-1 x214 -1 x216 -1 x218 -1 x220 -1 x222 -1 x224 -1 x226 -1 x228 -1 x230 -1 x232 -1 x234 -1 x236 -1 x238 -1 x240 -1 x242 -1 x244 -1 x246 -1 x248 -1 x250 >= -10;
+1 x215 +1 x217 +1 x219 +1 x221 +1 x223 +1 x225 +1 x227 +1 x229 +1 x231 +1 x233 +1 x235 +1 x237 +1 x239 +1 x241 +1 x243 +1 x245 +1 x247 +1 x249 +1 x251 >= 9;
-1 x215 -1 x217 -1 x219 -1 x221 -1 x223 -1 x225 -1 x227 -1 x229 -1 x231 -1 x233 -1 x235 -1 x237 -1 x239 -1 x241 -1 x243 -1 x245 -1 x247 -1 x249 -1 x251 >= -10;
+1 x216 +1 x218 +1 x220 +1 x222 +1 x224 +1 x226 +1 x228 +1 x230 +1 x232 +1 x234 +1 x236 +1 x238 +1 x240 +1 x242 +1 x244 +1 x246 +1 x248 +1 x250 +1 x252 >= 9;
-1 x216 -1 x218 -1 x220 -1 x222 -1 x224 -1 x226 -1 x228 -1 x230 -1 x232 -1 x234 -1 x236 -1 x238 -1 x240 -1 x242 -1 x244 -1 x246 -1 x248 -1 x250 -1 x252 >= -10;
+1 x217 +1 x219 +1 x221 +1 x223 +1 x225 +1 x227 +1 x229 +1 x231 +1 x233 +1 x235 +1 x237 +1 x239 +1 x241 +1 x243 +1 x245 +1 x247 +1 x249 +1 x251 +1 x253 >= 9;
-1 x217 -1 x219 -1 x221 -1 x223 -1 x225 -1 x227 -1 x229 -1 x231 -1 x233 -1 x235 -1 x237 -1 x239 -1 x241 -1 x243 -1 x245 -1 x247 -1 x249 -1 x251 -1 x253 >= -10;
+1 x218 +1 x220 +1 x222 +1 x224 +1 x226 +1 x228 +1 x230 +1 x232 +1 x234 +1 x236 +1 x238 +1 x240 +1 x242 +1 x244 +1 x246 +1 x248 +1 x250 +1 x252 +1 x254 >= 9;
-1 x218 -1 x220 -1 x222 -1 x224 -1 x226 -1 x228 -1 x230 -1 x232 -1 x234 -1 x236 -1 x238 -1 x240 -1 x242 -1 x244 -1 x246 -1 x248 -1 x250 -1 x252 -1 x254 >= -10;
+1 x219 +1 x221 +1 x223 +1 x225 +1 x227 +1 x229 +1 x231 +1 x233 +1 x235 +1 x237 +1 x239 +1 x241 +1 x243 +1 x245 +1 x247 +1 x249 +1 x251 +1 x253 +1 x255 >= 9;
-1 x219 -1 x221 -1 x223 -1 x225 -1 x227 -1 x229 -1 x231 -1 x233 -1 x235 -1 x237 -1 x239 -1 x241 -1 x243 -1 x245 -1 x247 -1 x249 -1 x251 -1 x253 -1 x255 >= -10;
+1 x220 +1 x222 +1 x224 +1 x226 +1 x228 +1 x230 +1 x232 +1 x234 +1 x236 +1 x238 +1 x240 +1 x242 +1 x244 +1 x246 +1 x248 +1 x250 +1 x252 +1 x254 +1 x256 >= 9;
-1 x220 -1 x222 -1 x224 -1 x226 -1 x228 -1 x230 -1 x232 -1 x234 -1 x236 -1 x238 -1 x240 -1 x242 -1 x244 -1 x246 -1 x248 -1 x250 -1 x252 -1 x254 -1 x256 >= -10;
+1 x221 +1 x223 +1 x225 +1 x227 +1 x229 +1 x231 +1 x233 +1 x235 +1 x237 +1 x239 +1 x241 +1 x243 +1 x245 +1 x247 +1 x249 +1 x251 +1 x253 +1 x255 +1 x257 >= 9;
-1 x221 -1 x223 -1 x225 -1 x227 -1 x229 -1 x231 -1 x233 -1 x235 -1 x237 -1 x239 -1 x241 -1 x243 -1 x245 -1 x247 -1 x249 -1 x251 -1 x253 -1 x255 -1 x257 >= -10;
+1 x222 +1 x224 +1 x226 +1 x228 +1 x230 +1 x232 +1 x234 +1 x236 +1 x238 +1 x240 +1 x242 +1 x244 +1 x246 +1 x248 +1 x250 +1 x252 +1 x254 +1 x256 +1 x258 >= 9;
-1 x222 -1 x224 -1 x226 -1 x228 -1 x230 -1 x232 -1 x234 -1 x236 -1 x238 -1 x240 -1 x242 -1 x244 -1 x246 -1 x248 -1 x250 -1 x252 -1 x254 -1 x256 -1 x258 >= -10;
+1 x223 +1 x225 +1 x227 +1 x229 +1 x231 +1 x233 +1 x235 +1 x237 +1 x239 +1 x241 +1 x243 +1 x245 +1 x247 +1 x249 +1 x251 +1 x253 +1 x255 +1 x257 +1 x259 >= 9;
-1 x223 -1 x225 -1 x227 -1 x229 -1 x231 -1 x233 -1 x235 -1 x237 -1 x239 -1 x241 -1 x243 -1 x245 -1 x247 -1 x249 -1 x251 -1 x253 -1 x255 -1 x257 -1 x259 >= -10;
+1 x224 +1 x226 +1 x228 +1 x230 +1 x232 +1 x234 +1 x236 +1 x238 +1 x240 +1 x242 +1 x244 +1 x246 +1 x248 +1 x250 +1 x252 +1 x254 +1 x256 +1 x258 +1 x260 >= 9;
-1 x224 -1 x226 -1 x228 -1 x230 -1 x232 -1 x234 -1 x236 -1 x238 -1 x240 -1 x242 -1 x244 -1 x246 -1 x248 -1 x250 -1 x252 -1 x254 -1 x256 -1 x258 -1 x260 >= -10;
+1 x225 +1 x227 +1 x229 +1 x231 +1 x233 +1 x235 +1 x237 +1 x239 +1 x241 +1 x243 +1 x245 +1 x247 +1 x249 +1 x251 +1 x253 +1 x255 +1 x257 +1 x259 +1 x261 >= 9;
-1 x225 -1 x227 -1 x229 -1 x231 -1 x233 -1 x235 -1 x237 -1 x239 -1 x241 -1 x243 -1 x245 -1 x247 -1 x249 -1 x251 -1 x253 -1 x255 -1 x257 -1 x259 -1 x261 >= -10;
+1 x226 +1 x228 +1 x230 +1 x232 +1 x234 +1 x236 +1 x238 +1 x240 +1 x242 +1 x244 +1 x246 +1 x248 +1 x250 +1 x252 +1 x254 +1 x256 +1 x258 +1 x260 +1 x262 >= 9;
-1 x226 -1 x228 -1 x230 -1 x232 -1 x234 -1 x236 -1 x238 -1 x240 -1 x242 -1 x244 -1 x246 -1 x248 -1 x250 -1 x252 -1 x254 -1 x256 -1 x258 -1 x260 -1 x262 >= -10;
+1 x227 +1 x229 +1 x231 +1 x233 +1 x235 +1 x237 +1 x239 +1 x241 +1 x243 +1 x245 +1 x247 +1 x249 +1 x251 +1 x253 +1 x255 +1 x257 +1 x259 +1 x261 +1 x263 >= 9;
-1 x227 -1 x229 -1 x231 -1 x233 -1 x235 -1 x237 -1 x239 -1 x241 -1 x243 -1 x245 -1 x247 -1 x249 -1 x251 -1 x253 -1 x255 -1 x257 -1 x259 -1 x261 -1 x263 >= -10;
+1 x228 +1 x230 +1 x232 +1 x234 +1 x236 +1 x238 +1 x240 +1 x242 +1 x244 +1 x246 +1 x248 +1 x250 +1 x252 +1 x254 +1 x256 +1 x258 +1 x260 +1 x262 +1 x264 >= 9;
-1 x228 -1 x230 -1 x232 -1 x234 -1 x236 -1 x238 -1 x240 -1 x242 -1 x244 -1 x246 -1 x248 -1 x250 -1 x252 -1 x254 -1 x256 -1 x258 -1 x260 -1 x262 -1 x264 >= -10;
+1 x229 +1 x231 +1 x233 +1 x235 +1 x237 +1 x239 +1 x241 +1 x243 +1 x245 +1 x247 +1 x249 +1 x251 +1 x253 +1 x255 +1 x257 +1 x259 +1 x261 +1 x263 +1 x265 >= 9;
-1 x229 -1 x231 -1 x233 -1 x235 -1 x237 -1 x239 -1 x241 -1 x243 -1 x245 -1 x247 -1 x249 -1 x251 -1 x253 -1 x255 -1 x257 -1 x259 -1 x261 -1 x263 -1 x265 >= -10;
+1 x230 +1 x232 +1 x234 +1 x236 +1 x238 +1 x240 +1 x242 +1 x244 +1 x246 +1 x248 +1 x250 +1 x252 +1 x254 +1 x256 +1 x258 +1 x260 +1 x262 +1 x264 +1 x266 >= 9;
-1 x230 -1 x232 -1 x234 -1 x236 -1 x238 -1 x240 -1 x242 -1 x244 -1 x246 -1 x248 -1 x250 -1 x252 -1 x254 -1 x256 -1 x258 -1 x260 -1 x262 -1 x264 -1 x266 >= -10;
+1 x231 +1 x233 +1 x235 +1 x237 +1 x239 +1 x241 +1 x243 +1 x245 +1 x247 +1 x249 +1 x251 +1 x253 +1 x255 +1 x257 +1 x259 +1 x261 +1 x263 +1 x265 +1 x267 >= 9;
-1 x231 -1 x233 -1 x235 -1 x237 -1 x239 -1 x241 -1 x243 -1 x245 -1 x247 -1 x249 -1 x251 -1 x253 -1 x255 -1 x257 -1 x259 -1 x261 -1 x263 -1 x265 -1 x267 >= -10;
+1 x232 +1 x234 +1 x236 +1 x238 +1 x240 +1 x242 +1 x244 +1 x246 +1 x248 +1 x250 +1 x252 +1 x254 +1 x256 +1 x258 +1 x260 +1 x262 +1 x264 +1 x266 +1 x268 >= 9;
-1 x232 -1 x234 -1 x236 -1 x238 -1 x240 -1 x242 -1 x244 -1 x246 -1 x248 -1 x250 -1 x252 -1 x254 -1 x256 -1 x258 -1 x260 -1 x262 -1 x264 -1 x266 -1 x268 >= -10;
+1 x233 +1 x235 +1 x237 +1 x239 +1 x241 +1 x243 +1 x245 +1 x247 +1 x249 +1 x251 +1 x253 +1 x255 +1 x257 +1 x259 +1 x261 +1 x263 +1 x265 +1 x267 +1 x269 >= 9;
-1 x233 -1 x235 -1 x237 -1 x239 -1 x241 -1 x243 -1 x245 -1 x247 -1 x249 -1 x251 -1 x253 -1 x255 -1 x257 -1 x259 -1 x261 -1 x263 -1 x265 -1 x267 -1 x269 >= -10;
+1 x234 +1 x236 +1 x238 +1 x240 +1 x242 +1 x244 +1 x246 +1 x248 +1 x250 +1 x252 +1 x254 +1 x256 +1 x258 +1 x260 +1 x262 +1 x264 +1 x266 +1 x268 +1 x270 >= 9;
-1 x234 -1 x236 -1 x238 -1 x240 -1 x242 -1 x244 -1 x246 -1 x248 -1 x250 -1 x252 -1 x254 -1 x256 -1 x258 -1 x260 -1 x262 -1 x264 -1 x266 -1 x268 -1 x270 >= -10;
+1 x235 +1 x237 +1 x239 +1 x241 +1 x243 +1 x245 +1 x247 +1 x249 +1 x251 +1 x253 +1 x255 +1 x257 +1 x259 +1 x261 +1 x263 +1 x265 +1 x267 +1 x269 +1 x271 >= 9;
-1 x235 -1 x237 -1 x239 -1 x241 -1 x243 -1 x245 -1 x247 -1 x249 -1 x251 -1 x253 -1 x255 -1 x257 -1 x259 -1 x261 -1 x263 -1 x265 -1 x267 -1 x269 -1 x271 >= -10;
+1 x236 +1 x238 +1 x240 +1 x242 +1 x244 +1 x246 +1 x248 +1 x250 +1 x252 +1 x254 +1 x256 +1 x258 +1 x260 +1 x262 +1 x264 +1 x266 +1 x268 +1 x270 +1 x272 >= 9;
-1 x236 -1 x238 -1 x240 -1 x242 -1 x244 -1 x246 -1 x248 -1 x250 -1 x252 -1 x254 -1 x256 -1 x258 -1 x260 -1 x262 -1 x264 -1 x266 -1 x268 -1 x270 -1 x272 >= -10;
+1 x237 +1 x239 +1 x241 +1 x243 +1 x245 +1 x247 +1 x249 +1 x251 +1 x253 +1 x255 +1 x257 +1 x259 +1 x261 +1 x263 +1 x265 +1 x267 +1 x269 +1 x271 +1 x273 >= 9;
-1 x237 -1 x239 -1 x241 -1 x243 -1 x245 -1 x247 -1 x249 -1 x251 -1 x253 -1 x255 -1 x257 -1 x259 -1 x261 -1 x263 -1 x265 -1 x267 -1 x269 -1 x271 -1 x273 >= -10;
+1 x238 +1 x240 +1 x242 +1 x244 +1 x246 +1 x248 +1 x250 +1 x252 +1 x254 +1 x256 +1 x258 +1 x260 +1 x262 +1 x264 +1 x266 +1 x268 +1 x270 +1 x272 +1 x274 >= 9;
-1 x238 -1 x240 -1 x242 -1 x244 -1 x246 -1 x248 -1 x250 -1 x252 -1 x254 -1 x256 -1 x258 -1 x260 -1 x262 -1 x264 -1 x266 -1 x268 -1 x270 -1 x272 -1 x274 >= -10;
+1 x239 +1 x241 +1 x243 +1 x245 +1 x247 +1 x249 +1 x251 +1 x253 +1 x255 +1 x257 +1 x259 +1 x261 +1 x263 +1 x265 +1 x267 +1 x269 +1 x271 +1 x273 +1 x275 >= 9;
-1 x239 -1 x241 -1 x243 -1 x245 -1 x247 -1 x249 -1 x251 -1 x253 -1 x255 -1 x257 -1 x259 -1 x261 -1 x263 -1 x265 -1 x267 -1 x269 -1 x271 -1 x273 -1 x275 >= -10;
+1 x240 +1 x242 +1 x244 +1 x246 +1 x248 +1 x250 +1 x252 +1 x254 +1 x256 +1 x258 +1 x260 +1 x262 +1 x264 +1 x266 +1 x268 +1 x270 +1 x272 +1 x274 +1 x276 >= 9;
-1 x240 -1 x242 -1 x244 -1 x246 -1 x248 -1 x250 -1 x252 -1 x254 -1 x256 -1 x258 -1 x260 -1 x262 -1 x264 -1 x266 -1 x268 -1 x270 -1 x272 -1 x274 -1 x276 >= -10;
+1 x241 +1 x243 +1 x245 +1 x247 +1 x249 +1 x251 +1 x253 +1 x255 +1 x257 +1 x259 +1 x261 +1 x263 +1 x265 +1 x267 +1 x269 +1 x271 +1 x273 +1 x275 +1 x277 >= 9;
-1 x241 -1 x243 -1 x245 -1 x247 -1 x249 -1 x251 -1 x253 -1 x255 -1 x257 -1 x259 -1 x261 -1 x263 -1 x265 -1 x267 -1 x269 -1 x271 -1 x273 -1 x275 -1 x277 >= -10;
+1 x242 +1 x244 +1 x246 +1 x248 +1 x250 +1 x252 +1 x254 +1 x256 +1 x258 +1 x260 +1 x262 +1 x264 +1 x266 +1 x268 +1 x270 +1 x272 +1 x274 +1 x276 +1 x278 >= 9;
-1 x242 -1 x244 -1 x246 -1 x248 -1 x250 -1 x252 -1 x254 -1 x256 -1 x258 -1 x260 -1 x262 -1 x264 -1 x266 -1 x268 -1 x270 -1 x272 -1 x274 -1 x276 -1 x278 >= -10;
+1 x243 +1 x245 +1 x247 +1 x249 +1 x251 +1 x253 +1 x255 +1 x257 +1 x259 +1 x261 +1 x263 +1 x265 +1 x267 +1 x269 +1 x271 +1 x273 +1 x275 +1 x277 +1 x279 >= 9;
-1 x243 -1 x245 -1 x247 -1 x249 -1 x251 -1 x253 -1 x255 -1 x257 -1 x259 -1 x261 -1 x263 -1 x265 -1 x267 -1 x269 -1 x271 -1 x273 -1 x275 -1 x277 -1 x279 >= -10;
+1 x244 +1 x246 +1 x248 +1 x250 +1 x252 +1 x254 +1 x256 +1 x258 +1 x260 +1 x262 +1 x264 +1 x266 +1 x268 +1 x270 +1 x272 +1 x274 +1 x276 +1 x278 +1 x280 >= 9;
-1 x244 -1 x246 -1 x248 -1 x250 -1 x252 -1 x254 -1 x256 -1 x258 -1 x260 -1 x262 -1 x264 -1 x266 -1 x268 -1 x270 -1 x272 -1 x274 -1 x276 -1 x278 -1 x280 >= -10;
+1 x245 +1 x247 +1 x249 +1 x251 +1 x253 +1 x255 +1 x257 +1 x259 +1 x261 +1 x263 +1 x265 +1 x267 +1 x269 +1 x271 +1 x273 +1 x275 +1 x277 +1 x279 +1 x281 >= 9;
-1 x245 -1 x247 -1 x249 -1 x251 -1 x253 -1 x255 -1 x257 -1 x259 -1 x261 -1 x263 -1 x265 -1 x267 -1 x269 -1 x271 -1 x273 -1 x275 -1 x277 -1 x279 -1 x281 >= -10;
+1 x246 +1 x248 +1 x250 +1 x252 +1 x254 +1 x256 +1 x258 +1 x260 +1 x262 +1 x264 +1 x266 +1 x268 +1 x270 +1 x272 +1 x274 +1 x276 +1 x278 +1 x280 +1 x282 >= 9;
-1 x246 -1 x248 -1 x250 -1 x252 -1 x254 -1 x256 -1 x258 -1 x260 -1 x262 -1 x264 -1 x266 -1 x268 -1 x270 -1 x272 -1 x274 -1 x276 -1 x278 -1 x280 -1 x282 >= -10;
+1 x247 +1 x249 +1 x251 +1 x253 +1 x255 +1 x257 +1 x259 +1 x261 +1 x263 +1 x265 +1 x267 +1 x269 +1 x271 +1 x273 +1 x275 +1 x277 +1 x279 +1 x281 +1 x283 >= 9;
-1 x247 -1 x249 -1 x251 -1 x253 -1 x255 -1 x257 -1 x259 -1 x261 -1 x263 -1 x265 -1 x267 -1 x269 -1 x271 -1 x273 -1 x275 -1 x277 -1 x279 -1 x281 -1 x283 >= -10;
+1 x248 +1 x250 +1 x252 +1 x254 +1 x256 +1 x258 +1 x260 +1 x262 +1 x264 +1 x266 +1 x268 +1 x270 +1 x272 +1 x274 +1 x276 +1 x278 +1 x280 +1 x282 +1 x284 >= 9;
-1 x248 -1 x250 -1 x252 -1 x254 -1 x256 -1 x258 -1 x260 -1 x262 -1 x264 -1 x266 -1 x268 -1 x270 -1 x272 -1 x274 -1 x276 -1 x278 -1 x280 -1 x282 -1 x284 >= -10;
+1 x249 +1 x251 +1 x253 +1 x255 +1 x257 +1 x259 +1 x261 +1 x263 +1 x265 +1 x267 +1 x269 +1 x271 +1 x273 +1 x275 +1 x277 +1 x279 +1 x281 +1 x283 +1 x285 >= 9;
-1 x249 -1 x251 -1 x253 -1 x255 -1 x257 -1 x259 -1 x261 -1 x263 -1 x265 -1 x267 -1 x269 -1 x271 -1 x273 -1 x275 -1 x277 -1 x279 -1 x281 -1 x283 -1 x285 >= -10;
+1 x250 +1 x252 +1 x254 +1 x256 +1 x258 +1 x260 +1 x262 +1 x264 +1 x266 +1 x268 +1 x270 +1 x272 +1 x274 +1 x276 +1 x278 +1 x280 +1 x282 +1 x284 +1 x286 >= 9;
-1 x250 -1 x252 -1 x254 -1 x256 -1 x258 -1 x260 -1 x262 -1 x264 -1 x266 -1 x268 -1 x270 -1 x272 -1 x274 -1 x276 -1 x278 -1 x280 -1 x282 -1 x284 -1 x286 >= -10;
+1 x251 +1 x253 +1 x255 +1 x257 +1 x259 +1 x261 +1 x263 +1 x265 +1 x267 +1 x269 +1 x271 +1 x273 +1 x275 +1 x277 +1 x279 +1 x281 +1 x283 +1 x285 +1 x287 >= 9;
-1 x251 -1 x253 -1 x255 -1 x257 -1 x259 -1 x261 -1 x263 -1 x265 -1 x267 -1 x269 -1 x271 -1 x273 -1 x275 -1 x277 -1 x279 -1 x281 -1 x283 -1 x285 -1 x287 >= -10;
+1 x252 +1 x254 +1 x256 +1 x258 +1 x260 +1 x262 +1 x264 +1 x266 +1 x268 +1 x270 +1 x272 +1 x274 +1 x276 +1 x278 +1 x280 +1 x282 +1 x284 +1 x286 +1 x288 >= 9;
-1 x252 -1 x254 -1 x256 -1 x258 -1 x260 -1 x262 -1 x264 -1 x266 -1 x268 -1 x270 -1 x272 -1 x274 -1 x276 -1 x278 -1 x280 -1 x282 -1 x284 -1 x286 -1 x288 >= -10;
+1 x253 +1 x255 +1 x257 +1 x259 +1 x261 +1 x263 +1 x265 +1 x267 +1 x269 +1 x271 +1 x273 +1 x275 +1 x277 +1 x279 +1 x281 +1 x283 +1 x285 +1 x287 +1 x289 >= 9;
-1 x253 -1 x255 -1 x257 -1 x259 -1 x261 -1 x263 -1 x265 -1 x267 -1 x269 -1 x271 -1 x273 -1 x275 -1 x277 -1 x279 -1 x281 -1 x283 -1 x285 -1 x287 -1 x289 >= -10;
+1 x254 +1 x256 +1 x258 +1 x260 +1 x262 +1 x264 +1 x266 +1 x268 +1 x270 +1 x272 +1 x274 +1 x276 +1 x278 +1 x280 +1 x282 +1 x284 +1 x286 +1 x288 +1 x290 >= 9;
-1 x254 -1 x256 -1 x258 -1 x260 -1 x262 -1 x264 -1 x266 -1 x268 -1 x270 -1 x272 -1 x274 -1 x276 -1 x278 -1 x280 -1 x282 -1 x284 -1 x286 -1 x288 -1 x290 >= -10;
+1 x255 +1 x257 +1 x259 +1 x261 +1 x263 +1 x265 +1 x267 +1 x269 +1 x271 +1 x273 +1 x275 +1 x277 +1 x279 +1 x281 +1 x283 +1 x285 +1 x287 +1 x289 +1 x291 >= 9;
-1 x255 -1 x257 -1 x259 -1 x261 -1 x263 -1 x265 -1 x267 -1 x269 -1 x271 -1 x273 -1 x275 -1 x277 -1 x279 -1 x281 -1 x283 -1 x285 -1 x287 -1 x289 -1 x291 >= -10;
+1 x256 +1 x258 +1 x260 +1 x262 +1 x264 +1 x266 +1 x268 +1 x270 +1 x272 +1 x274 +1 x276 +1 x278 +1 x280 +1 x282 +1 x284 +1 x286 +1 x288 +1 x290 +1 x292 >= 9;
-1 x256 -1 x258 -1 x260 -1 x262 -1 x264 -1 x266 -1 x268 -1 x270 -1 x272 -1 x274 -1 x276 -1 x278 -1 x280 -1 x282 -1 x284 -1 x286 -1 x288 -1 x290 -1 x292 >= -10;
+1 x257 +1 x259 +1 x261 +1 x263 +1 x265 +1 x267 +1 x269 +1 x271 +1 x273 +1 x275 +1 x277 +1 x279 +1 x281 +1 x283 +1 x285 +1 x287 +1 x289 +1 x291 +1 x293 >= 9;
-1 x257 -1 x259 -1 x261 -1 x263 -1 x265 -1 x267 -1 x269 -1 x271 -1 x273 -1 x275 -1 x277 -1 x279 -1 x281 -1 x283 -1 x285 -1 x287 -1 x289 -1 x291 -1 x293 >= -10;
+1 x258 +1 x260 +1 x262 +1 x264 +1 x266 +1 x268 +1 x270 +1 x272 +1 x274 +1 x276 +1 x278 +1 x280 +1 x282 +1 x284 +1 x286 +1 x288 +1 x290 +1 x292 +1 x294 >= 9;
-1 x258 -1 x260 -1 x262 -1 x264 -1 x266 -1 x268 -1 x270 -1 x272 -1 x274 -1 x276 -1 x278 -1 x280 -1 x282 -1 x284 -1 x286 -1 x288 -1 x290 -1 x292 -1 x294 >= -10;
+1 x259 +1 x261 +1 x263 +1 x265 +1 x267 +1 x269 +1 x271 +1 x273 +1 x275 +1 x277 +1 x279 +1 x281 +1 x283 +1 x285 +1 x287 +1 x289 +1 x291 +1 x293 +1 x295 >= 9;
-1 x259 -1 x261 -1 x263 -1 x265 -1 x267 -1 x269 -1 x271 -1 x273 -1 x275 -1 x277 -1 x279 -1 x281 -1 x283 -1 x285 -1 x287 -1 x289 -1 x291 -1 x293 -1 x295 >= -10;
+1 x260 +1 x262 +1 x264 +1 x266 +1 x268 +1 x270 +1 x272 +1 x274 +1 x276 +1 x278 +1 x280 +1 x282 +1 x284 +1 x286 +1 x288 +1 x290 +1 x292 +1 x294 +1 x296 >= 9;
-1 x260 -1 x262 -1 x264 -1 x266 -1 x268 -1 x270 -1 x272 -1 x274 -1 x276 -1 x278 -1 x280 -1 x282 -1 x284 -1 x286 -1 x288 -1 x290 -1 x292 -1 x294 -1 x296 >= -10;
+1 x261 +1 x263 +1 x265 +1 x267 +1 x269 +1 x271 +1 x273 +1 x275 +1 x277 +1 x279 +1 x281 +1 x283 +1 x285 +1 x287 +1 x289 +1 x291 +1 x293 +1 x295 +1 x297 >= 9;
-1 x261 -1 x263 -1 x265 -1 x267 -1 x269 -1 x271 -1 x273 -1 x275 -1 x277 -1 x279 -1 x281 -1 x283 -1 x285 -1 x287 -1 x289 -1 x291 -1 x293 -1 x295 -1 x297 >= -10;
+1 x262 +1 x264 +1 x266 +1 x268 +1 x270 +1 x272 +1 x274 +1 x276 +1 x278 +1 x280 +1 x282 +1 x284 +1 x286 +1 x288 +1 x290 +1 x292 +1 x294 +1 x296 +1 x298 >= 9;
-1 x262 -1 x264 -1 x266 -1 x268 -1 x270 -1 x272 -1 x274 -1 x276 -1 x278 -1 x280 -1 x282 -1 x284 -1 x286 -1 x288 -1 x290 -1 x292 -1 x294 -1 x296 -1 x298 >= -10;
+1 x263 +1 x265 +1 x267 +1 x269 +1 x271 +1 x273 +1 x275 +1 x277 +1 x279 +1 x281 +1 x283 +1 x285 +1 x287 +1 x289 +1 x291 +1 x293 +1 x295 +1 x297 +1 x299 >= 9;
-1 x263 -1 x265 -1 x267 -1 x269 -1 x271 -1 x273 -1 x275 -1 x277 -1 x279 -1 x281 -1 x283 -1 x285 -1 x287 -1 x289 -1 x291 -1 x293 -1 x295 -1 x297 -1 x299 >= -10;
+1 x264 +1 x266 +1 x268 +1 x270 +1 x272 +1 x274 +1 x276 +1 x278 +1 x280 +1 x282 +1 x284 +1 x286 +1 x288 +1 x290 +1 x292 +1 x294 +1 x296 +1 x298 +1 x300 >= 9;
-1 x264 -1 x266 -1 x268 -1 x270 -1 x272 -1 x274 -1 x276 -1 x278 -1 x280 -1 x282 -1 x284 -1 x286 -1 x288 -1 x290 -1 x292 -1 x294 -1 x296 -1 x298 -1 x300 >= -10;
+1 x265 +1 x267 +1 x269 +1 x271 +1 x273 +1 x275 +1 x277 +1 x279 +1 x281 +1 x283 +1 x285 +1 x287 +1 x289 +1 x291 +1 x293 +1 x295 +1 x297 +1 x299 +1 x301 >= 9;
-1 x265 -1 x267 -1 x269 -1 x271 -1 x273 -1 x275 -1 x277 -1 x279 -1 x281 -1 x283 -1 x285 -1 x287 -1 x289 -1 x291 -1 x293 -1 x295 -1 x297 -1 x299 -1 x301 >= -10;
+1 x266 +1 x268 +1 x270 +1 x272 +1 x274 +1 x276 +1 x278 +1 x280 +1 x282 +1 x284 +1 x286 +1 x288 +1 x290 +1 x292 +1 x294 +1 x296 +1 x298 +1 x300 +1 x302 >= 9;
-1 x266 -1 x268 -1 x270 -1 x272 -1 x274 -1 x276 -1 x278 -1 x280 -1 x282 -1 x284 -1 x286 -1 x288 -1 x290 -1 x292 -1 x294 -1 x296 -1 x298 -1 x300 -1 x302 >= -10;
+1 x267 +1 x269 +1 x271 +1 x273 +1 x275 +1 x277 +1 x279 +1 x281 +1 x283 +1 x285 +1 x287 +1 x289 +1 x291 +1 x293 +1 x295 +1 x297 +1 x299 +1 x301 +1 x303 >= 9;
-1 x267 -1 x269 -1 x271 -1 x273 -1 x275 -1 x277 -1 x279 -1 x281 -1 x283 -1 x285 -1 x287 -1 x289 -1 x291 -1 x293 -1 x295 -1 x297 -1 x299 -1 x301 -1 x303 >= -10;
+1 x268 +1 x270 +1 x272 +1 x274 +1 x276 +1 x278 +1 x280 +1 x282 +1 x284 +1 x286 +1 x288 +1 x290 +1 x292 +1 x294 +1 x296 +1 x298 +1 x300 +1 x302 +1 x304 >= 9;
-1 x268 -1 x270 -1 x272 -1 x274 -1 x276 -1 x278 -1 x280 -1 x282 -1 x284 -1 x286 -1 x288 -1 x290 -1 x292 -1 x294 -1 x296 -1 x298 -1 x300 -1 x302 -1 x304 >= -10;
+1 x269 +1 x271 +1 x273 +1 x275 +1 x277 +1 x279 +1 x281 +1 x283 +1 x285 +1 x287 +1 x289 +1 x291 +1 x293 +1 x295 +1 x297 +1 x299 +1 x301 +1 x303 +1 x305 >= 9;
-1 x269 -1 x271 -1 x273 -1 x275 -1 x277 -1 x279 -1 x281 -1 x283 -1 x285 -1 x287 -1 x289 -1 x291 -1 x293 -1 x295 -1 x297 -1 x299 -1 x301 -1 x303 -1 x305 >= -10;
+1 x270 +1 x272 +1 x274 +1 x276 +1 x278 +1 x280 +1 x282 +1 x284 +1 x286 +1 x288 +1 x290 +1 x292 +1 x294 +1 x296 +1 x298 +1 x300 +1 x302 +1 x304 +1 x306 >= 9;
-1 x270 -1 x272 -1 x274 -1 x276 -1 x278 -1 x280 -1 x282 -1 x284 -1 x286 -1 x288 -1 x290 -1 x292 -1 x294 -1 x296 -1 x298 -1 x300 -1 x302 -1 x304 -1 x306 >= -10;
+1 x271 +1 x273 +1 x275 +1 x277 +1 x279 +1 x281 +1 x283 +1 x285 +1 x287 +1 x289 +1 x291 +1 x293 +1 x295 +1 x297 +1 x299 +1 x301 +1 x303 +1 x305 +1 x307 >= 9;
-1 x271 -1 x273 -1 x275 -1 x277 -1 x279 -1 x281 -1 x283 -1 x285 -1 x287 -1 x289 -1 x291 -1 x293 -1 x295 -1 x297 -1 x299 -1 x301 -1 x303 -1 x305 -1 x307 >= -10;
+1 x272 +1 x274 +1 x276 +1 x278 +1 x280 +1 x282 +1 x284 +1 x286 +1 x288 +1 x290 +1 x292 +1 x294 +1 x296 +1 x298 +1 x300 +1 x302 +1 x304 +1 x306 +1 x308 >= 9;
-1 x272 -1 x274 -1 x276 -1 x278 -1 x280 -1 x282 -1 x284 -1 x286 -1 x288 -1 x290 -1 x292 -1 x294 -1 x296 -1 x298 -1 x300 -1 x302 -1 x304 -1 x306 -1 x308 >= -10;
+1 x273 +1 x275 +1 x277 +1 x279 +1 x281 +1 x283 +1 x285 +1 x287 +1 x289 +1 x291 +1 x293 +1 x295 +1 x297 +1 x299 +1 x301 +1 x303 +1 x305 +1 x307 +1 x309 >= 9;
-1 x273 -1 x275 -1 x277 -1 x279 -1 x281 -1 x283 -1 x285 -1 x287 -1 x289 -1 x291 -1 x293 -1 x295 -1 x297 -1 x299 -1 x301 -1 x303 -1 x305 -1 x307 -1 x309 >= -10;
+1 x274 +1 x276 +1 x278 +1 x280 +1 x282 +1 x284 +1 x286 +1 x288 +1 x290 +1 x292 +1 x294 +1 x296 +1 x298 +1 x300 +1 x302 +1 x304 +1 x306 +1 x308 +1 x310 >= 9;
-1 x274 -1 x276 -1 x278 -1 x280 -1 x282 -1 x284 -1 x286 -1 x288 -1 x290 -1 x292 -1 x294 -1 x296 -1 x298 -1 x300 -1 x302 -1 x304 -1 x306 -1 x308 -1 x310 >= -10;
+1 x275 +1 x277 +1 x279 +1 x281 +1 x283 +1 x285 +1 x287 +1 x289 +1 x291 +1 x293 +1 x295 +1 x297 +1 x299 +1 x301 +1 x303 +1 x305 +1 x307 +1 x309 +1 x311 >= 9;
-1 x275 -1 x277 -1 x279 -1 x281 -1 x283 -1 x285 -1 x287 -1 x289 -1 x291 -1 x293 -1 x295 -1 x297 -1 x299 -1 x301 -1 x303 -1 x305 -1 x307 -1 x309 -1 x311 >= -10;
+1 x276 +1 x278 +1 x280 +1 x282 +1 x284 +1 x286 +1 x288 +1 x290 +1 x292 +1 x294 +1 x296 +1 x298 +1 x300 +1 x302 +1 x304 +1 x306 +1 x308 +1 x310 +1 x312 >= 9;
-1 x276 -1 x278 -1 x280 -1 x282 -1 x284 -1 x286 -1 x288 -1 x290 -1 x292 -1 x294 -1 x296 -1 x298 -1 x300 -1 x302 -1 x304 -1 x306 -1 x308 -1 x310 -1 x312 >= -10;
+1 x277 +1 x279 +1 x281 +1 x283 +1 x285 +1 x287 +1 x289 +1 x291 +1 x293 +1 x295 +1 x297 +1 x299 +1 x301 +1 x303 +1 x305 +1 x307 +1 x309 +1 x311 +1 x313 >= 9;
-1 x277 -1 x279 -1 x281 -1 x283 -1 x285 -1 x287 -1 x289 -1 x291 -1 x293 -1 x295 -1 x297 -1 x299 -1 x301 -1 x303 -1 x305 -1 x307 -1 x309 -1 x311 -1 x313 >= -10;
+1 x278 +1 x280 +1 x282 +1 x284 +1 x286 +1 x288 +1 x290 +1 x292 +1 x294 +1 x296 +1 x298 +1 x300 +1 x302 +1 x304 +1 x306 +1 x308 +1 x310 +1 x312 +1 x314 >= 9;
-1 x278 -1 x280 -1 x282 -1 x284 -1 x286 -1 x288 -1 x290 -1 x292 -1 x294 -1 x296 -1 x298 -1 x300 -1 x302 -1 x304 -1 x306 -1 x308 -1 x310 -1 x312 -1 x314 >= -10;
+1 x279 +1 x281 +1 x283 +1 x285 +1 x287 +1 x289 +1 x291 +1 x293 +1 x295 +1 x297 +1 x299 +1 x301 +1 x303 +1 x305 +1 x307 +1 x309 +1 x311 +1 x313 +1 x315 >= 9;
-1 x279 -1 x281 -1 x283 -1 x285 -1 x287 -1 x289 -1 x291 -1 x293 -1 x295 -1 x297 -1 x299 -1 x301 -1 x303 -1 x305 -1 x307 -1 x309 -1 x311 -1 x313 -1 x315 >= -10;
+1 x280 +1 x282 +1 x284 +1 x286 +1 x288 +1 x290 +1 x292 +1 x294 +1 x296 +1 x298 +1 x300 +1 x302 +1 x304 +1 x306 +1 x308 +1 x310 +1 x312 +1 x314 +1 x316 >= 9;
-1 x280 -1 x282 -1 x284 -1 x286 -1 x288 -1 x290 -1 x292 -1 x294 -1 x296 -1 x298 -1 x300 -1 x302 -1 x304 -1 x306 -1 x308 -1 x310 -1 x312 -1 x314 -1 x316 >= -10;
+1 x281 +1 x283 +1 x285 +1 x287 +1 x289 +1 x291 +1 x293 +1 x295 +1 x297 +1 x299 +1 x301 +1 x303 +1 x305 +1 x307 +1 x309 +1 x311 +1 x313 +1 x315 +1 x317 >= 9;
-1 x281 -1 x283 -1 x285 -1 x287 -1 x289 -1 x291 -1 x293 -1 x295 -1 x297 -1 x299 -1 x301 -1 x303 -1 x305 -1 x307 -1 x309 -1 x311 -1 x313 -1 x315 -1 x317 >= -10;
+1 x282 +1 x284 +1 x286 +1 x288 +1 x290 +1 x292 +1 x294 +1 x296 +1 x298 +1 x300 +1 x302 +1 x304 +1 x306 +1 x308 +1 x310 +1 x312 +1 x314 +1 x316 +1 x318 >= 9;
-1 x282 -1 x284 -1 x286 -1 x288 -1 x290 -1 x292 -1 x294 -1 x296 -1 x298 -1 x300 -1 x302 -1 x304 -1 x306 -1 x308 -1 x310 -1 x312 -1 x314 -1 x316 -1 x318 >= -10;
+1 x283 +1 x285 +1 x287 +1 x289 +1 x291 +1 x293 +1 x295 +1 x297 +1 x299 +1 x301 +1 x303 +1 x305 +1 x307 +1 x309 +1 x311 +1 x313 +1 x315 +1 x317 +1 x319 >= 9;
-1 x283 -1 x285 -1 x287 -1 x289 -1 x291 -1 x293 -1 x295 -1 x297 -1 x299 -1 x301 -1 x303 -1 x305 -1 x307 -1 x309 -1 x311 -1 x313 -1 x315 -1 x317 -1 x319 >= -10;
+1 x284 +1 x286 +1 x288 +1 x290 +1 x292 +1 x294 +1 x296 +1 x298 +1 x300 +1 x302 +1 x304 +1 x306 +1 x308 +1 x310 +1 x312 +1 x314 +1 x316 +1 x318 +1 x320 >= 9;
-1 x284 -1 x286 -1 x288 -1 x290 -1 x292 -1 x294 -1 x296 -1 x298 -1 x300 -1 x302 -1 x304 -1 x306 -1 x308 -1 x310 -1 x312 -1 x314 -1 x316 -1 x318 -1 x320 >= -10;
+1 x285 +1 x287 +1 x289 +1 x291 +1 x293 +1 x295 +1 x297 +1 x299 +1 x301 +1 x303 +1 x305 +1 x307 +1 x309 +1 x311 +1 x313 +1 x315 +1 x317 +1 x319 +1 x321 >= 9;
-1 x285 -1 x287 -1 x289 -1 x291 -1 x293 -1 x295 -1 x297 -1 x299 -1 x301 -1 x303 -1 x305 -1 x307 -1 x309 -1 x311 -1 x313 -1 x315 -1 x317 -1 x319 -1 x321 >= -10;
+1 x286 +1 x288 +1 x290 +1 x292 +1 x294 +1 x296 +1 x298 +1 x300 +1 x302 +1 x304 +1 x306 +1 x308 +1 x310 +1 x312 +1 x314 +1 x316 +1 x318 +1 x320 +1 x322 >= 9;
-1 x286 -1 x288 -1 x290 -1 x292 -1 x294 -1 x296 -1 x298 -1 x300 -1 x302 -1 x304 -1 x306 -1 x308 -1 x310 -1 x312 -1 x314 -1 x316 -1 x318 -1 x320 -1 x322 >= -10;
+1 x287 +1 x289 +1 x291 +1 x293 +1 x295 +1 x297 +1 x299 +1 x301 +1 x303 +1 x305 +1 x307 +1 x309 +1 x311 +1 x313 +1 x315 +1 x317 +1 x319 +1 x321 +1 x323 >= 9;
-1 x287 -1 x289 -1 x291 -1 x293 -1 x295 -1 x297 -1 x299 -1 x301 -1 x303 -1 x305 -1 x307 -1 x309 -1 x311 -1 x313 -1 x315 -1 x317 -1 x319 -1 x321 -1 x323 >= -10;
+1 x288 +1 x290 +1 x292 +1 x294 +1 x296 +1 x298 +1 x300 +1 x302 +1 x304 +1 x306 +1 x308 +1 x310 +1 x312 +1 x314 +1 x316 +1 x318 +1 x320 +1 x322 +1 x324 >= 9;
-1 x288 -1 x290 -1 x292 -1 x294 -1 x296 -1 x298 -1 x300 -1 x302 -1 x304 -1 x306 -1 x308 -1 x310 -1 x312 -1 x314 -1 x316 -1 x318 -1 x320 -1 x322 -1 x324 >= -10;
+1 x289 +1 x291 +1 x293 +1 x295 +1 x297 +1 x299 +1 x301 +1 x303 +1 x305 +1 x307 +1 x309 +1 x311 +1 x313 +1 x315 +1 x317 +1 x319 +1 x321 +1 x323 +1 x325 >= 9;
-1 x289 -1 x291 -1 x293 -1 x295 -1 x297 -1 x299 -1 x301 -1 x303 -1 x305 -1 x307 -1 x309 -1 x311 -1 x313 -1 x315 -1 x317 -1 x319 -1 x321 -1 x323 -1 x325 >= -10;
+1 x290 +1 x292 +1 x294 +1 x296 +1 x298 +1 x300 +1 x302 +1 x304 +1 x306 +1 x308 +1 x310 +1 x312 +1 x314 +1 x316 +1 x318 +1 x320 +1 x322 +1 x324 +1 x326 >= 9;
-1 x290 -1 x292 -1 x294 -1 x296 -1 x298 -1 x300 -1 x302 -1 x304 -1 x306 -1 x308 -1 x310 -1 x312 -1 x314 -1 x316 -1 x318 -1 x320 -1 x322 -1 x324 -1 x326 >= -10;
+1 x291 +1 x293 +1 x295 +1 x297 +1 x299 +1 x301 +1 x303 +1 x305 +1 x307 +1 x309 +1 x311 +1 x313 +1 x315 +1 x317 +1 x319 +1 x321 +1 x323 +1 x325 +1 x327 >= 9;
-1 x291 -1 x293 -1 x295 -1 x297 -1 x299 -1 x301 -1 x303 -1 x305 -1 x307 -1 x309 -1 x311 -1 x313 -1 x315 -1 x317 -1 x319 -1 x321 -1 x323 -1 x325 -1 x327 >= -10;
+1 x292 +1 x294 +1 x296 +1 x298 +1 x300 +1 x302 +1 x304 +1 x306 +1 x308 +1 x310 +1 x312 +1 x314 +1 x316 +1 x318 +1 x320 +1 x322 +1 x324 +1 x326 +1 x328 >= 9;
-1 x292 -1 x294 -1 x296 -1 x298 -1 x300 -1 x302 -1 x304 -1 x306 -1 x308 -1 x310 -1 x312 -1 x314 -1 x316 -1 x318 -1 x320 -1 x322 -1 x324 -1 x326 -1 x328 >= -10;
+1 x293 +1 x295 +1 x297 +1 x299 +1 x301 +1 x303 +1 x305 +1 x307 +1 x309 +1 x311 +1 x313 +1 x315 +1 x317 +1 x319 +1 x321 +1 x323 +1 x325 +1 x327 +1 x329 >= 9;
-1 x293 -1 x295 -1 x297 -1 x299 -1 x301 -1 x303 -1 x305 -1 x307 -1 x309 -1 x311 -1 x313 -1 x315 -1 x317 -1 x319 -1 x321 -1 x323 -1 x325 -1 x327 -1 x329 >= -10;
+1 x294 +1 x296 +1 x298 +1 x300 +1 x302 +1 x304 +1 x306 +1 x308 +1 x310 +1 x312 +1 x314 +1 x316 +1 x318 +1 x320 +1 x322 +1 x324 +1 x326 +1 x328 +1 x330 >= 9;
-1 x294 -1 x296 -1 x298 -1 x300 -1 x302 -1 x304 -1 x306 -1 x308 -1 x310 -1 x312 -1 x314 -1 x316 -1 x318 -1 x320 -1 x322 -1 x324 -1 x326 -1 x328 -1 x330 >= -10;
+1 x295 +1 x297 +1 x299 +1 x301 +1 x303 +1 x305 +1 x307 +1 x309 +1 x311 +1 x313 +1 x315 +1 x317 +1 x319 +1 x321 +1 x323 +1 x325 +1 x327 +1 x329 +1 x331 >= 9;
-1 x295 -1 x297 -1 x299 -1 x301 -1 x303 -1 x305 -1 x307 -1 x309 -1 x311 -1 x313 -1 x315 -1 x317 -1 x319 -1 x321 -1 x323 -1 x325 -1 x327 -1 x329 -1 x331 >= -10;
+1 x296 +1 x298 +1 x300 +1 x302 +1 x304 +1 x306 +1 x308 +1 x310 +1 x312 +1 x314 +1 x316 +1 x318 +1 x320 +1 x322 +1 x324 +1 x326 +1 x328 +1 x330 +1 x332 >= 9;
-1 x296 -1 x298 -1 x300 -1 x302 -1 x304 -1 x306 -1 x308 -1 x310 -1 x312 -1 x314 -1 x316 -1 x318 -1 x320 -1 x322 -1 x324 -1 x326 -1 x328 -1 x330 -1 x332 >= -10;
+1 x297 +1 x299 +1 x301 +1 x303 +1 x305 +1 x307 +1 x309 +1 x311 +1 x313 +1 x315 +1 x317 +1 x319 +1 x321 +1 x323 +1 x325 +1 x327 +1 x329 +1 x331 +1 x333 >= 9;
-1 x297 -1 x299 -1 x301 -1 x303 -1 x305 -1 x307 -1 x309 -1 x311 -1 x313 -1 x315 -1 x317 -1 x319 -1 x321 -1 x323 -1 x325 -1 x327 -1 x329 -1 x331 -1 x333 >= -10;
+1 x298 +1 x300 +1 x302 +1 x304 +1 x306 +1 x308 +1 x310 +1 x312 +1 x314 +1 x316 +1 x318 +1 x320 +1 x322 +1 x324 +1 x326 +1 x328 +1 x330 +1 x332 +1 x334 >= 9;
-1 x298 -1 x300 -1 x302 -1 x304 -1 x306 -1 x308 -1 x310 -1 x312 -1 x314 -1 x316 -1 x318 -1 x320 -1 x322 -1 x324 -1 x326 -1 x328 -1 x330 -1 x332 -1 x334 >= -10;
+1 x299 +1 x301 +1 x303 +1 x305 +1 x307 +1 x309 +1 x311 +1 x313 +1 x315 +1 x317 +1 x319 +1 x321 +1 x323 +1 x325 +1 x327 +1 x329 +1 x331 +1 x333 +1 x335 >= 9;
-1 x299 -1 x301 -1 x303 -1 x305 -1 x307 -1 x309 -1 x311 -1 x313 -1 x315 -1 x317 -1 x319 -1 x321 -1 x323 -1 x325 -1 x327 -1 x329 -1 x331 -1 x333 -1 x335 >= -10;
+1 x300 +1 x302 +1 x304 +1 x306 +1 x308 +1 x310 +1 x312 +1 x314 +1 x316 +1 x318 +1 x320 +1 x322 +1 x324 +1 x326 +1 x328 +1 x330 +1 x332 +1 x334 +1 x336 >= 9;
-1 x300 -1 x302 -1 x304 -1 x306 -1 x308 -1 x310 -1 x312 -1 x314 -1 x316 -1 x318 -1 x320 -1 x322 -1 x324 -1 x326 -1 x328 -1 x330 -1 x332 -1 x334 -1 x336 >= -10;
+1 x301 +1 x303 +1 x305 +1 x307 +1 x309 +1 x311 +1 x313 +1 x315 +1 x317 +1 x319 +1 x321 +1 x323 +1 x325 +1 x327 +1 x329 +1 x331 +1 x333 +1 x335 +1 x337 >= 9;
-1 x301 -1 x303 -1 x305 -1 x307 -1 x309 -1 x311 -1 x313 -1 x315 -1 x317 -1 x319 -1 x321 -1 x323 -1 x325 -1 x327 -1 x329 -1 x331 -1 x333 -1 x335 -1 x337 >= -10;
+1 x302 +1 x304 +1 x306 +1 x308 +1 x310 +1 x312 +1 x314 +1 x316 +1 x318 +1 x320 +1 x322 +1 x324 +1 x326 +1 x328 +1 x330 +1 x332 +1 x334 +1 x336 +1 x338 >= 9;
-1 x302 -1 x304 -1 x306 -1 x308 -1 x310 -1 x312 -1 x314 -1 x316 -1 x318 -1 x320 -1 x322 -1 x324 -1 x326 -1 x328 -1 x330 -1 x332 -1 x334 -1 x336 -1 x338 >= -10;
+1 x303 +1 x305 +1 x307 +1 x309 +1 x311 +1 x313 +1 x315 +1 x317 +1 x319 +1 x321 +1 x323 +1 x325 +1 x327 +1 x329 +1 x331 +1 x333 +1 x335 +1 x337 +1 x339 >= 9;
-1 x303 -1 x305 -1 x307 -1 x309 -1 x311 -1 x313 -1 x315 -1 x317 -1 x319 -1 x321 -1 x323 -1 x325 -1 x327 -1 x329 -1 x331 -1 x333 -1 x335 -1 x337 -1 x339 >= -10;
+1 x304 +1 x306 +1 x308 +1 x310 +1 x312 +1 x314 +1 x316 +1 x318 +1 x320 +1 x322 +1 x324 +1 x326 +1 x328 +1 x330 +1 x332 +1 x334 +1 x336 +1 x338 +1 x340 >= 9;
-1 x304 -1 x306 -1 x308 -1 x310 -1 x312 -1 x314 -1 x316 -1 x318 -1 x320 -1 x322 -1 x324 -1 x326 -1 x328 -1 x330 -1 x332 -1 x334 -1 x336 -1 x338 -1 x340 >= -10;
+1 x305 +1 x307 +1 x309 +1 x311 +1 x313 +1 x315 +1 x317 +1 x319 +1 x321 +1 x323 +1 x325 +1 x327 +1 x329 +1 x331 +1 x333 +1 x335 +1 x337 +1 x339 +1 x341 >= 9;
-1 x305 -1 x307 -1 x309 -1 x311 -1 x313 -1 x315 -1 x317 -1 x319 -1 x321 -1 x323 -1 x325 -1 x327 -1 x329 -1 x331 -1 x333 -1 x335 -1 x337 -1 x339 -1 x341 >= -10;
+1 x306 +1 x308 +1 x310 +1 x312 +1 x314 +1 x316 +1 x318 +1 x320 +1 x322 +1 x324 +1 x326 +1 x328 +1 x330 +1 x332 +1 x334 +1 x336 +1 x338 +1 x340 +1 x342 >= 9;
-1 x306 -1 x308 -1 x310 -1 x312 -1 x314 -1 x316 -1 x318 -1 x320 -1 x322 -1 x324 -1 x326 -1 x328 -1 x330 -1 x332 -1 x334 -1 x336 -1 x338 -1 x340 -1 x342 >= -10;
+1 x307 +1 x309 +1 x311 +1 x313 +1 x315 +1 x317 +1 x319 +1 x321 +1 x323 +1 x325 +1 x327 +1 x329 +1 x331 +1 x333 +1 x335 +1 x337 +1 x339 +1 x341 +1 x343 >= 9;
-1 x307 -1 x309 -1 x311 -1 x313 -1 x315 -1 x317 -1 x319 -1 x321 -1 x323 -1 x325 -1 x327 -1 x329 -1 x331 -1 x333 -1 x335 -1 x337 -1 x339 -1 x341 -1 x343 >= -10;
+1 x308 +1 x310 +1 x312 +1 x314 +1 x316 +1 x318 +1 x320 +1 x322 +1 x324 +1 x326 +1 x328 +1 x330 +1 x332 +1 x334 +1 x336 +1 x338 +1 x340 +1 x342 +1 x344 >= 9;
-1 x308 -1 x310 -1 x312 -1 x314 -1 x316 -1 x318 -1 x320 -1 x322 -1 x324 -1 x326 -1 x328 -1 x330 -1 x332 -1 x334 -1 x336 -1 x338 -1 x340 -1 x342 -1 x344 >= -10;
+1 x1 +1 x4 +1 x7 +1 x10 +1 x13 +1 x16 +1 x19 +1 x22 +1 x25 +1 x28 +1 x31 +1 x34 +1 x37 +1 x40 +1 x43 +1 x46 +1 x49 +1 x52 +1 x55 >= 9;
-1 x1 -1 x4 -1 x7 -1 x10 -1 x13 -1 x16 -1 x19 -1 x22 -1 x25 -1 x28 -1 x31 -1 x34 -1 x37 -1 x40 -1 x43 -1 x46 -1 x49 -1 x52 -1 x55 >= -10;
+1 x2 +1 x5 +1 x8 +1 x11 +1 x14 +1 x17 +1 x20 +1 x23 +1 x26 +1 x29 +1 x32 +1 x35 +1 x38 +1 x41 +1 x44 +1 x47 +1 x50 +1 x53 +1 x56 >= 9;
-1 x2 -1 x5 -1 x8 -1 x11 -1 x14 -1 x17 -1 x20 -1 x23 -1 x26 -1 x29 -1 x32 -1 x35 -1 x38 -1 x41 -1 x44 -1 x47 -1 x50 -1 x53 -1 x56 >= -10;
+1 x3 +1 x6 +1 x9 +1 x12 +1 x15 +1 x18 +1 x21 +1 x24 +1 x27 +1 x30 +1 x33 +1 x36 +1 x39 +1 x42 +1 x45 +1 x48 +1 x51 +1 x54 +1 x57 >= 9;
-1 x3 -1 x6 -1 x9 -1 x12 -1 x15 -1 x18 -1 x21 -1 x24 -1 x27 -1 x30 -1 x33 -1 x36 -1 x39 -1 x42 -1 x45 -1 x48 -1 x51 -1 x54 -1 x57 >= -10;
+1 x4 +1 x7 +1 x10 +1 x13 +1 x16 +1 x19 +1 x22 +1 x25 +1 x28 +1 x31 +1 x34 +1 x37 +1 x40 +1 x43 +1 x46 +1 x49 +1 x52 +1 x55 +1 x58 >= 9;
-1 x4 -1 x7 -1 x10 -1 x13 -1 x16 -1 x19 -1 x22 -1 x25 -1 x28 -1 x31 -1 x34 -1 x37 -1 x40 -1 x43 -1 x46 -1 x49 -1 x52 -1 x55 -1 x58 >= -10;
+1 x5 +1 x8 +1 x11 +1 x14 +1 x17 +1 x20 +1 x23 +1 x26 +1 x29 +1 x32 +1 x35 +1 x38 +1 x41 +1 x44 +1 x47 +1 x50 +1 x53 +1 x56 +1 x59 >= 9;
-1 x5 -1 x8 -1 x11 -1 x14 -1 x17 -1 x20 -1 x23 -1 x26 -1 x29 -1 x32 -1 x35 -1 x38 -1 x41 -1 x44 -1 x47 -1 x50 -1 x53 -1 x56 -1 x59 >= -10;
+1 x6 +1 x9 +1 x12 +1 x15 +1 x18 +1 x21 +1 x24 +1 x27 +1 x30 +1 x33 +1 x36 +1 x39 +1 x42 +1 x45 +1 x48 +1 x51 +1 x54 +1 x57 +1 x60 >= 9;
-1 x6 -1 x9 -1 x12 -1 x15 -1 x18 -1 x21 -1 x24 -1 x27 -1 x30 -1 x33 -1 x36 -1 x39 -1 x42 -1 x45 -1 x48 -1 x51 -1 x54 -1 x57 -1 x60 >= -10;
+1 x7 +1 x10 +1 x13 +1 x16 +1 x19 +1 x22 +1 x25 +1 x28 +1 x31 +1 x34 +1 x37 +1 x40 +1 x43 +1 x46 +1 x49 +1 x52 +1 x55 +1 x58 +1 x61 >= 9;
-1 x7 -1 x10 -1 x13 -1 x16 -1 x19 -1 x22 -1 x25 -1 x28 -1 x31 -1 x34 -1 x37 -1 x40 -1 x43 -1 x46 -1 x49 -1 x52 -1 x55 -1 x58 -1 x61 >= -10;
+1 x8 +1 x11 +1 x14 +1 x17 +1 x20 +1 x23 +1 x26 +1 x29 +1 x32 +1 x35 +1 x38 +1 x41 +1 x44 +1 x47 +1 x50 +1 x53 +1 x56 +1 x59 +1 x62 >= 9;
-1 x8 -1 x11 -1 x14 -1 x17 -1 x20 -1 x23 -1 x26 -1 x29 -1 x32 -1 x35 -1 x38 -1 x41 -1 x44 -1 x47 -1 x50 -1 x53 -1 x56 -1 x59 -1 x62 >= -10;
+1 x9 +1 x12 +1 x15 +1 x18 +1 x21 +1 x24 +1 x27 +1 x30 +1 x33 +1 x36 +1 x39 +1 x42 +1 x45 +1 x48 +1 x51 +1 x54 +1 x57 +1 x60 +1 x63 >= 9;
-1 x9 -1 x12 -1 x15 -1 x18 -1 x21 -1 x24 -1 x27 -1 x30 -1 x33 -1 x36 -1 x39 -1 x42 -1 x45 -1 x48 -1 x51 -1 x54 -1 x57 -1 x60 -1 x63 >= -10;
+1 x10 +1 x13 +1 x16 +1 x19 +1 x22 +1 x25 +1 x28 +1 x31 +1 x34 +1 x37 +1 x40 +1 x43 +1 x46 +1 x49 +1 x52 +1 x55 +1 x58 +1 x61 +1 x64 >= 9;
-1 x10 -1 x13 -1 x16 -1 x19 -1 x22 -1 x25 -1 x28 -1 x31 -1 x34 -1 x37 -1 x40 -1 x43 -1 x46 -1 x49 -1 x52 -1 x55 -1 x58 -1 x61 -1 x64 >= -10;
+1 x11 +1 x14 +1 x17 +1 x20 +1 x23 +1 x26 +1 x29 +1 x32 +1 x35 +1 x38 +1 x41 +1 x44 +1 x47 +1 x50 +1 x53 +1 x56 +1 x59 +1 x62 +1 x65 >= 9;
-1 x11 -1 x14 -1 x17 -1 x20 -1 x23 -1 x26 -1 x29 -1 x32 -1 x35 -1 x38 -1 x41 -1 x44 -1 x47 -1 x50 -1 x53 -1 x56 -1 x59 -1 x62 -1 x65 >= -10;
+1 x12 +1 x15 +1 x18 +1 x21 +1 x24 +1 x27 +1 x30 +1 x33 +1 x36 +1 x39 +1 x42 +1 x45 +1 x48 +1 x51 +1 x54 +1 x57 +1 x60 +1 x63 +1 x66 >= 9;
-1 x12 -1 x15 -1 x18 -1 x21 -1 x24 -1 x27 -1 x30 -1 x33 -1 x36 -1 x39 -1 x42 -1 x45 -1 x48 -1 x51 -1 x54 -1 x57 -1 x60 -1 x63 -1 x66 >= -10;
+1 x13 +1 x16 +1 x19 +1 x22 +1 x25 +1 x28 +1 x31 +1 x34 +1 x37 +1 x40 +1 x43 +1 x46 +1 x49 +1 x52 +1 x55 +1 x58 +1 x61 +1 x64 +1 x67 >= 9;
-1 x13 -1 x16 -1 x19 -1 x22 -1 x25 -1 x28 -1 x31 -1 x34 -1 x37 -1 x40 -1 x43 -1 x46 -1 x49 -1 x52 -1 x55 -1 x58 -1 x61 -1 x64 -1 x67 >= -10;
+1 x14 +1 x17 +1 x20 +1 x23 +1 x26 +1 x29 +1 x32 +1 x35 +1 x38 +1 x41 +1 x44 +1 x47 +1 x50 +1 x53 +1 x56 +1 x59 +1 x62 +1 x65 +1 x68 >= 9;
-1 x14 -1 x17 -1 x20 -1 x23 -1 x26 -1 x29 -1 x32 -1 x35 -1 x38 -1 x41 -1 x44 -1 x47 -1 x50 -1 x53 -1 x56 -1 x59 -1 x62 -1 x65 -1 x68 >= -10;
+1 x15 +1 x18 +1 x21 +1 x24 +1 x27 +1 x30 +1 x33 +1 x36 +1 x39 +1 x42 +1 x45 +1 x48 +1 x51 +1 x54 +1 x57 +1 x60 +1 x63 +1 x66 +1 x69 >= 9;
-1 x15 -1 x18 -1 x21 -1 x24 -1 x27 -1 x30 -1 x33 -1 x36 -1 x39 -1 x42 -1 x45 -1 x48 -1 x51 -1 x54 -1 x57 -1 x60 -1 x63 -1 x66 -1 x69 >= -10;
+1 x16 +1 x19 +1 x22 +1 x25 +1 x28 +1 x31 +1 x34 +1 x37 +1 x40 +1 x43 +1 x46 +1 x49 +1 x52 +1 x55 +1 x58 +1 x61 +1 x64 +1 x67 +1 x70 >= 9;
-1 x16 -1 x19 -1 x22 -1 x25 -1 x28 -1 x31 -1 x34 -1 x37 -1 x40 -1 x43 -1 x46 -1 x49 -1 x52 -1 x55 -1 x58 -1 x61 -1 x64 -1 x67 -1 x70 >= -10;
+1 x17 +1 x20 +1 x23 +1 x26 +1 x29 +1 x32 +1 x35 +1 x38 +1 x41 +1 x44 +1 x47 +1 x50 +1 x53 +1 x56 +1 x59 +1 x62 +1 x65 +1 x68 +1 x71 >= 9;
-1 x17 -1 x20 -1 x23 -1 x26 -1 x29 -1 x32 -1 x35 -1 x38 -1 x41 -1 x44 -1 x47 -1 x50 -1 x53 -1 x56 -1 x59 -1 x62 -1 x65 -1 x68 -1 x71 >= -10;
+1 x18 +1 x21 +1 x24 +1 x27 +1 x30 +1 x33 +1 x36 +1 x39 +1 x42 +1 x45 +1 x48 +1 x51 +1 x54 +1 x57 +1 x60 +1 x63 +1 x66 +1 x69 +1 x72 >= 9;
-1 x18 -1 x21 -1 x24 -1 x27 -1 x30 -1 x33 -1 x36 -1 x39 -1 x42 -1 x45 -1 x48 -1 x51 -1 x54 -1 x57 -1 x60 -1 x63 -1 x66 -1 x69 -1 x72 >= -10;
+1 x19 +1 x22 +1 x25 +1 x28 +1 x31 +1 x34 +1 x37 +1 x40 +1 x43 +1 x46 +1 x49 +1 x52 +1 x55 +1 x58 +1 x61 +1 x64 +1 x67 +1 x70 +1 x73 >= 9;
-1 x19 -1 x22 -1 x25 -1 x28 -1 x31 -1 x34 -1 x37 -1 x40 -1 x43 -1 x46 -1 x49 -1 x52 -1 x55 -1 x58 -1 x61 -1 x64 -1 x67 -1 x70 -1 x73 >= -10;
+1 x20 +1 x23 +1 x26 +1 x29 +1 x32 +1 x35 +1 x38 +1 x41 +1 x44 +1 x47 +1 x50 +1 x53 +1 x56 +1 x59 +1 x62 +1 x65 +1 x68 +1 x71 +1 x74 >= 9;
-1 x20 -1 x23 -1 x26 -1 x29 -1 x32 -1 x35 -1 x38 -1 x41 -1 x44 -1 x47 -1 x50 -1 x53 -1 x56 -1 x59 -1 x62 -1 x65 -1 x68 -1 x71 -1 x74 >= -10;
+1 x21 +1 x24 +1 x27 +1 x30 +1 x33 +1 x36 +1 x39 +1 x42 +1 x45 +1 x48 +1 x51 +1 x54 +1 x57 +1 x60 +1 x63 +1 x66 +1 x69 +1 x72 +1 x75 >= 9;
-1 x21 -1 x24 -1 x27 -1 x30 -1 x33 -1 x36 -1 x39 -1 x42 -1 x45 -1 x48 -1 x51 -1 x54 -1 x57 -1 x60 -1 x63 -1 x66 -1 x69 -1 x72 -1 x75 >= -10;
+1 x22 +1 x25 +1 x28 +1 x31 +1 x34 +1 x37 +1 x40 +1 x43 +1 x46 +1 x49 +1 x52 +1 x55 +1 x58 +1 x61 +1 x64 +1 x67 +1 x70 +1 x73 +1 x76 >= 9;
-1 x22 -1 x25 -1 x28 -1 x31 -1 x34 -1 x37 -1 x40 -1 x43 -1 x46 -1 x49 -1 x52 -1 x55 -1 x58 -1 x61 -1 x64 -1 x67 -1 x70 -1 x73 -1 x76 >= -10;
+1 x23 +1 x26 +1 x29 +1 x32 +1 x35 +1 x38 +1 x41 +1 x44 +1 x47 +1 x50 +1 x53 +1 x56 +1 x59 +1 x62 +1 x65 +1 x68 +1 x71 +1 x74 +1 x77 >= 9;
-1 x23 -1 x26 -1 x29 -1 x32 -1 x35 -1 x38 -1 x41 -1 x44 -1 x47 -1 x50 -1 x53 -1 x56 -1 x59 -1 x62 -1 x65 -1 x68 -1 x71 -1 x74 -1 x77 >= -10;
+1 x24 +1 x27 +1 x30 +1 x33 +1 x36 +1 x39 +1 x42 +1 x45 +1 x48 +1 x51 +1 x54 +1 x57 +1 x60 +1 x63 +1 x66 +1 x69 +1 x72 +1 x75 +1 x78 >= 9;
-1 x24 -1 x27 -1 x30 -1 x33 -1 x36 -1 x39 -1 x42 -1 x45 -1 x48 -1 x51 -1 x54 -1 x57 -1 x60 -1 x63 -1 x66 -1 x69 -1 x72 -1 x75 -1 x78 >= -10;
+1 x25 +1 x28 +1 x31 +1 x34 +1 x37 +1 x40 +1 x43 +1 x46 +1 x49 +1 x52 +1 x55 +1 x58 +1 x61 +1 x64 +1 x67 +1 x70 +1 x73 +1 x76 +1 x79 >= 9;
-1 x25 -1 x28 -1 x31 -1 x34 -1 x37 -1 x40 -1 x43 -1 x46 -1 x49 -1 x52 -1 x55 -1 x58 -1 x61 -1 x64 -1 x67 -1 x70 -1 x73 -1 x76 -1 x79 >= -10;
+1 x26 +1 x29 +1 x32 +1 x35 +1 x38 +1 x41 +1 x44 +1 x47 +1 x50 +1 x53 +1 x56 +1 x59 +1 x62 +1 x65 +1 x68 +1 x71 +1 x74 +1 x77 +1 x80 >= 9;
-1 x26 -1 x29 -1 x32 -1 x35 -1 x38 -1 x41 -1 x44 -1 x47 -1 x50 -1 x53 -1 x56 -1 x59 -1 x62 -1 x65 -1 x68 -1 x71 -1 x74 -1 x77 -1 x80 >= -10;
+1 x27 +1 x30 +1 x33 +1 x36 +1 x39 +1 x42 +1 x45 +1 x48 +1 x51 +1 x54 +1 x57 +1 x60 +1 x63 +1 x66 +1 x69 +1 x72 +1 x75 +1 x78 +1 x81 >= 9;
-1 x27 -1 x30 -1 x33 -1 x36 -1 x39 -1 x42 -1 x45 -1 x48 -1 x51 -1 x54 -1 x57 -1 x60 -1 x63 -1 x66 -1 x69 -1 x72 -1 x75 -1 x78 -1 x81 >= -10;
+1 x28 +1 x31 +1 x34 +1 x37 +1 x40 +1 x43 +1 x46 +1 x49 +1 x52 +1 x55 +1 x58 +1 x61 +1 x64 +1 x67 +1 x70 +1 x73 +1 x76 +1 x79 +1 x82 >= 9;
-1 x28 -1 x31 -1 x34 -1 x37 -1 x40 -1 x43 -1 x46 -1 x49 -1 x52 -1 x55 -1 x58 -1 x61 -1 x64 -1 x67 -1 x70 -1 x73 -1 x76 -1 x79 -1 x82 >= -10;
+1 x29 +1 x32 +1 x35 +1 x38 +1 x41 +1 x44 +1 x47 +1 x50 +1 x53 +1 x56 +1 x59 +1 x62 +1 x65 +1 x68 +1 x71 +1 x74 +1 x77 +1 x80 +1 x83 >= 9;
-1 x29 -1 x32 -1 x35 -1 x38 -1 x41 -1 x44 -1 x47 -1 x50 -1 x53 -1 x56 -1 x59 -1 x62 -1 x65 -1 x68 -1 x71 -1 x74 -1 x77 -1 x80 -1 x83 >= -10;
+1 x30 +1 x33 +1 x36 +1 x39 +1 x42 +1 x45 +1 x48 +1 x51 +1 x54 +1 x57 +1 x60 +1 x63 +1 x66 +1 x69 +1 x72 +1 x75 +1 x78 +1 x81 +1 x84 >= 9;
-1 x30 -1 x33 -1 x36 -1 x39 -1 x42 -1 x45 -1 x48 -1 x51 -1 x54 -1 x57 -1 x60 -1 x63 -1 x66 -1 x69 -1 x72 -1 x75 -1 x78 -1 x81 -1 x84 >= -10;
+1 x31 +1 x34 +1 x37 +1 x40 +1 x43 +1 x46 +1 x49 +1 x52 +1 x55 +1 x58 +1 x61 +1 x64 +1 x67 +1 x70 +1 x73 +1 x76 +1 x79 +1 x82 +1 x85 >= 9;
-1 x31 -1 x34 -1 x37 -1 x40 -1 x43 -1 x46 -1 x49 -1 x52 -1 x55 -1 x58 -1 x61 -1 x64 -1 x67 -1 x70 -1 x73 -1 x76 -1 x79 -1 x82 -1 x85 >= -10;
+1 x32 +1 x35 +1 x38 +1 x41 +1 x44 +1 x47 +1 x50 +1 x53 +1 x56 +1 x59 +1 x62 +1 x65 +1 x68 +1 x71 +1 x74 +1 x77 +1 x80 +1 x83 +1 x86 >= 9;
-1 x32 -1 x35 -1 x38 -1 x41 -1 x44 -1 x47 -1 x50 -1 x53 -1 x56 -1 x59 -1 x62 -1 x65 -1 x68 -1 x71 -1 x74 -1 x77 -1 x80 -1 x83 -1 x86 >= -10;
+1 x33 +1 x36 +1 x39 +1 x42 +1 x45 +1 x48 +1 x51 +1 x54 +1 x57 +1 x60 +1 x63 +1 x66 +1 x69 +1 x72 +1 x75 +1 x78 +1 x81 +1 x84 +1 x87 >= 9;
-1 x33 -1 x36 -1 x39 -1 x42 -1 x45 -1 x48 -1 x51 -1 x54 -1 x57 -1 x60 -1 x63 -1 x66 -1 x69 -1 x72 -1 x75 -1 x78 -1 x81 -1 x84 -1 x87 >= -10;
+1 x34 +1 x37 +1 x40 +1 x43 +1 x46 +1 x49 +1 x52 +1 x55 +1 x58 +1 x61 +1 x64 +1 x67 +1 x70 +1 x73 +1 x76 +1 x79 +1 x82 +1 x85 +1 x88 >= 9;
-1 x34 -1 x37 -1 x40 -1 x43 -1 x46 -1 x49 -1 x52 -1 x55 -1 x58 -1 x61 -1 x64 -1 x67 -1 x70 -1 x73 -1 x76 -1 x79 -1 x82 -1 x85 -1 x88 >= -10;
+1 x35 +1 x38 +1 x41 +1 x44 +1 x47 +1 x50 +1 x53 +1 x56 +1 x59 +1 x62 +1 x65 +1 x68 +1 x71 +1 x74 +1 x77 +1 x80 +1 x83 +1 x86 +1 x89 >= 9;
-1 x35 -1 x38 -1 x41 -1 x44 -1 x47 -1 x50 -1 x53 -1 x56 -1 x59 -1 x62 -1 x65 -1 x68 -1 x71 -1 x74 -1 x77 -1 x80 -1 x83 -1 x86 -1 x89 >= -10;
+1 x36 +1 x39 +1 x42 +1 x45 +1 x48 +1 x51 +1 x54 +1 x57 +1 x60 +1 x63 +1 x66 +1 x69 +1 x72 +1 x75 +1 x78 +1 x81 +1 x84 +1 x87 +1 x90 >= 9;
-1 x36 -1 x39 -1 x42 -1 x45 -1 x48 -1 x51 -1 x54 -1 x57 -1 x60 -1 x63 -1 x66 -1 x69 -1 x72 -1 x75 -1 x78 -1 x81 -1 x84 -1 x87 -1 x90 >= -10;
+1 x37 +1 x40 +1 x43 +1 x46 +1 x49 +1 x52 +1 x55 +1 x58 +1 x61 +1 x64 +1 x67 +1 x70 +1 x73 +1 x76 +1 x79 +1 x82 +1 x85 +1 x88 +1 x91 >= 9;
-1 x37 -1 x40 -1 x43 -1 x46 -1 x49 -1 x52 -1 x55 -1 x58 -1 x61 -1 x64 -1 x67 -1 x70 -1 x73 -1 x76 -1 x79 -1 x82 -1 x85 -1 x88 -1 x91 >= -10;
+1 x38 +1 x41 +1 x44 +1 x47 +1 x50 +1 x53 +1 x56 +1 x59 +1 x62 +1 x65 +1 x68 +1 x71 +1 x74 +1 x77 +1 x80 +1 x83 +1 x86 +1 x89 +1 x92 >= 9;
-1 x38 -1 x41 -1 x44 -1 x47 -1 x50 -1 x53 -1 x56 -1 x59 -1 x62 -1 x65 -1 x68 -1 x71 -1 x74 -1 x77 -1 x80 -1 x83 -1 x86 -1 x89 -1 x92 >= -10;
+1 x39 +1 x42 +1 x45 +1 x48 +1 x51 +1 x54 +1 x57 +1 x60 +1 x63 +1 x66 +1 x69 +1 x72 +1 x75 +1 x78 +1 x81 +1 x84 +1 x87 +1 x90 +1 x93 >= 9;
-1 x39 -1 x42 -1 x45 -1 x48 -1 x51 -1 x54 -1 x57 -1 x60 -1 x63 -1 x66 -1 x69 -1 x72 -1 x75 -1 x78 -1 x81 -1 x84 -1 x87 -1 x90 -1 x93 >= -10;
+1 x40 +1 x43 +1 x46 +1 x49 +1 x52 +1 x55 +1 x58 +1 x61 +1 x64 +1 x67 +1 x70 +1 x73 +1 x76 +1 x79 +1 x82 +1 x85 +1 x88 +1 x91 +1 x94 >= 9;
-1 x40 -1 x43 -1 x46 -1 x49 -1 x52 -1 x55 -1 x58 -1 x61 -1 x64 -1 x67 -1 x70 -1 x73 -1 x76 -1 x79 -1 x82 -1 x85 -1 x88 -1 x91 -1 x94 >= -10;
+1 x41 +1 x44 +1 x47 +1 x50 +1 x53 +1 x56 +1 x59 +1 x62 +1 x65 +1 x68 +1 x71 +1 x74 +1 x77 +1 x80 +1 x83 +1 x86 +1 x89 +1 x92 +1 x95 >= 9;
-1 x41 -1 x44 -1 x47 -1 x50 -1 x53 -1 x56 -1 x59 -1 x62 -1 x65 -1 x68 -1 x71 -1 x74 -1 x77 -1 x80 -1 x83 -1 x86 -1 x89 -1 x92 -1 x95 >= -10;
+1 x42 +1 x45 +1 x48 +1 x51 +1 x54 +1 x57 +1 x60 +1 x63 +1 x66 +1 x69 +1 x72 +1 x75 +1 x78 +1 x81 +1 x84 +1 x87 +1 x90 +1 x93 +1 x96 >= 9;
-1 x42 -1 x45 -1 x48 -1 x51 -1 x54 -1 x57 -1 x60 -1 x63 -1 x66 -1 x69 -1 x72 -1 x75 -1 x78 -1 x81 -1 x84 -1 x87 -1 x90 -1 x93 -1 x96 >= -10;
+1 x43 +1 x46 +1 x49 +1 x52 +1 x55 +1 x58 +1 x61 +1 x64 +1 x67 +1 x70 +1 x73 +1 x76 +1 x79 +1 x82 +1 x85 +1 x88 +1 x91 +1 x94 +1 x97 >= 9;
-1 x43 -1 x46 -1 x49 -1 x52 -1 x55 -1 x58 -1 x61 -1 x64 -1 x67 -1 x70 -1 x73 -1 x76 -1 x79 -1 x82 -1 x85 -1 x88 -1 x91 -1 x94 -1 x97 >= -10;
+1 x44 +1 x47 +1 x50 +1 x53 +1 x56 +1 x59 +1 x62 +1 x65 +1 x68 +1 x71 +1 x74 +1 x77 +1 x80 +1 x83 +1 x86 +1 x89 +1 x92 +1 x95 +1 x98 >= 9;
-1 x44 -1 x47 -1 x50 -1 x53 -1 x56 -1 x59 -1 x62 -1 x65 -1 x68 -1 x71 -1 x74 -1 x77 -1 x80 -1 x83 -1 x86 -1 x89 -1 x92 -1 x95 -1 x98 >= -10;
+1 x45 +1 x48 +1 x51 +1 x54 +1 x57 +1 x60 +1 x63 +1 x66 +1 x69 +1 x72 +1 x75 +1 x78 +1 x81 +1 x84 +1 x87 +1 x90 +1 x93 +1 x96 +1 x99 >= 9;
-1 x45 -1 x48 -1 x51 -1 x54 -1 x57 -1 x60 -1 x63 -1 x66 -1 x69 -1 x72 -1 x75 -1 x78 -1 x81 -1 x84 -1 x87 -1 x90 -1 x93 -1 x96 -1 x99 >= -10;
+1 x46 +1 x49 +1 x52 +1 x55 +1 x58 +1 x61 +1 x64 +1 x67 +1 x70 +1 x73 +1 x76 +1 x79 +1 x82 +1 x85 +1 x88 +1 x91 +1 x94 +1 x97 +1 x100 >= 9;
-1 x46 -1 x49 -1 x52 -1 x55 -1 x58 -1 x61 -1 x64 -1 x67 -1 x70 -1 x73 -1 x76 -1 x79 -1 x82 -1 x85 -1 x88 -1 x91 -1 x94 -1 x97 -1 x100 >= -10;
+1 x47 +1 x50 +1 x53 +1 x56 +1 x59 +1 x62 +1 x65 +1 x68 +1 x71 +1 x74 +1 x77 +1 x80 +1 x83 +1 x86 +1 x89 +1 x92 +1 x95 +1 x98 +1 x101 >= 9;
-1 x47 -1 x50 -1 x53 -1 x56 -1 x59 -1 x62 -1 x65 -1 x68 -1 x71 -1 x74 -1 x77 -1 x80 -1 x83 -1 x86 -1 x89 -1 x92 -1 x95 -1 x98 -1 x101 >= -10;
+1 x48 +1 x51 +1 x54 +1 x57 +1 x60 +1 x63 +1 x66 +1 x69 +1 x72 +1 x75 +1 x78 +1 x81 +1 x84 +1 x87 +1 x90 +1 x93 +1 x96 +1 x99 +1 x102 >= 9;
-1 x48 -1 x51 -1 x54 -1 x57 -1 x60 -1 x63 -1 x66 -1 x69 -1 x72 -1 x75 -1 x78 -1 x81 -1 x84 -1 x87 -1 x90 -1 x93 -1 x96 -1 x99 -1 x102 >= -10;
+1 x49 +1 x52 +1 x55 +1 x58 +1 x61 +1 x64 +1 x67 +1 x70 +1 x73 +1 x76 +1 x79 +1 x82 +1 x85 +1 x88 +1 x91 +1 x94 +1 x97 +1 x100 +1 x103 >= 9;
-1 x49 -1 x52 -1 x55 -1 x58 -1 x61 -1 x64 -1 x67 -1 x70 -1 x73 -1 x76 -1 x79 -1 x82 -1 x85 -1 x88 -1 x91 -1 x94 -1 x97 -1 x100 -1 x103 >= -10;
+1 x50 +1 x53 +1 x56 +1 x59 +1 x62 +1 x65 +1 x68 +1 x71 +1 x74 +1 x77 +1 x80 +1 x83 +1 x86 +1 x89 +1 x92 +1 x95 +1 x98 +1 x101 +1 x104 >= 9;
-1 x50 -1 x53 -1 x56 -1 x59 -1 x62 -1 x65 -1 x68 -1 x71 -1 x74 -1 x77 -1 x80 -1 x83 -1 x86 -1 x89 -1 x92 -1 x95 -1 x98 -1 x101 -1 x104 >= -10;
+1 x51 +1 x54 +1 x57 +1 x60 +1 x63 +1 x66 +1 x69 +1 x72 +1 x75 +1 x78 +1 x81 +1 x84 +1 x87 +1 x90 +1 x93 +1 x96 +1 x99 +1 x102 +1 x105 >= 9;
-1 x51 -1 x54 -1 x57 -1 x60 -1 x63 -1 x66 -1 x69 -1 x72 -1 x75 -1 x78 -1 x81 -1 x84 -1 x87 -1 x90 -1 x93 -1 x96 -1 x99 -1 x102 -1 x105 >= -10;
+1 x52 +1 x55 +1 x58 +1 x61 +1 x64 +1 x67 +1 x70 +1 x73 +1 x76 +1 x79 +1 x82 +1 x85 +1 x88 +1 x91 +1 x94 +1 x97 +1 x100 +1 x103 +1 x106 >= 9;
-1 x52 -1 x55 -1 x58 -1 x61 -1 x64 -1 x67 -1 x70 -1 x73 -1 x76 -1 x79 -1 x82 -1 x85 -1 x88 -1 x91 -1 x94 -1 x97 -1 x100 -1 x103 -1 x106 >= -10;
+1 x53 +1 x56 +1 x59 +1 x62 +1 x65 +1 x68 +1 x71 +1 x74 +1 x77 +1 x80 +1 x83 +1 x86 +1 x89 +1 x92 +1 x95 +1 x98 +1 x101 +1 x104 +1 x107 >= 9;
-1 x53 -1 x56 -1 x59 -1 x62 -1 x65 -1 x68 -1 x71 -1 x74 -1 x77 -1 x80 -1 x83 -1 x86 -1 x89 -1 x92 -1 x95 -1 x98 -1 x101 -1 x104 -1 x107 >= -10;
+1 x54 +1 x57 +1 x60 +1 x63 +1 x66 +1 x69 +1 x72 +1 x75 +1 x78 +1 x81 +1 x84 +1 x87 +1 x90 +1 x93 +1 x96 +1 x99 +1 x102 +1 x105 +1 x108 >= 9;
-1 x54 -1 x57 -1 x60 -1 x63 -1 x66 -1 x69 -1 x72 -1 x75 -1 x78 -1 x81 -1 x84 -1 x87 -1 x90 -1 x93 -1 x96 -1 x99 -1 x102 -1 x105 -1 x108 >= -10;
+1 x55 +1 x58 +1 x61 +1 x64 +1 x67 +1 x70 +1 x73 +1 x76 +1 x79 +1 x82 +1 x85 +1 x88 +1 x91 +1 x94 +1 x97 +1 x100 +1 x103 +1 x106 +1 x109 >= 9;
-1 x55 -1 x58 -1 x61 -1 x64 -1 x67 -1 x70 -1 x73 -1 x76 -1 x79 -1 x82 -1 x85 -1 x88 -1 x91 -1 x94 -1 x97 -1 x100 -1 x103 -1 x106 -1 x109 >= -10;
+1 x56 +1 x59 +1 x62 +1 x65 +1 x68 +1 x71 +1 x74 +1 x77 +1 x80 +1 x83 +1 x86 +1 x89 +1 x92 +1 x95 +1 x98 +1 x101 +1 x104 +1 x107 +1 x110 >= 9;
-1 x56 -1 x59 -1 x62 -1 x65 -1 x68 -1 x71 -1 x74 -1 x77 -1 x80 -1 x83 -1 x86 -1 x89 -1 x92 -1 x95 -1 x98 -1 x101 -1 x104 -1 x107 -1 x110 >= -10;
+1 x57 +1 x60 +1 x63 +1 x66 +1 x69 +1 x72 +1 x75 +1 x78 +1 x81 +1 x84 +1 x87 +1 x90 +1 x93 +1 x96 +1 x99 +1 x102 +1 x105 +1 x108 +1 x111 >= 9;
-1 x57 -1 x60 -1 x63 -1 x66 -1 x69 -1 x72 -1 x75 -1 x78 -1 x81 -1 x84 -1 x87 -1 x90 -1 x93 -1 x96 -1 x99 -1 x102 -1 x105 -1 x108 -1 x111 >= -10;
+1 x58 +1 x61 +1 x64 +1 x67 +1 x70 +1 x73 +1 x76 +1 x79 +1 x82 +1 x85 +1 x88 +1 x91 +1 x94 +1 x97 +1 x100 +1 x103 +1 x106 +1 x109 +1 x112 >= 9;
-1 x58 -1 x61 -1 x64 -1 x67 -1 x70 -1 x73 -1 x76 -1 x79 -1 x82 -1 x85 -1 x88 -1 x91 -1 x94 -1 x97 -1 x100 -1 x103 -1 x106 -1 x109 -1 x112 >= -10;
+1 x59 +1 x62 +1 x65 +1 x68 +1 x71 +1 x74 +1 x77 +1 x80 +1 x83 +1 x86 +1 x89 +1 x92 +1 x95 +1 x98 +1 x101 +1 x104 +1 x107 +1 x110 +1 x113 >= 9;
-1 x59 -1 x62 -1 x65 -1 x68 -1 x71 -1 x74 -1 x77 -1 x80 -1 x83 -1 x86 -1 x89 -1 x92 -1 x95 -1 x98 -1 x101 -1 x104 -1 x107 -1 x110 -1 x113 >= -10;
+1 x60 +1 x63 +1 x66 +1 x69 +1 x72 +1 x75 +1 x78 +1 x81 +1 x84 +1 x87 +1 x90 +1 x93 +1 x96 +1 x99 +1 x102 +1 x105 +1 x108 +1 x111 +1 x114 >= 9;
-1 x60 -1 x63 -1 x66 -1 x69 -1 x72 -1 x75 -1 x78 -1 x81 -1 x84 -1 x87 -1 x90 -1 x93 -1 x96 -1 x99 -1 x102 -1 x105 -1 x108 -1 x111 -1 x114 >= -10;
+1 x61 +1 x64 +1 x67 +1 x70 +1 x73 +1 x76 +1 x79 +1 x82 +1 x85 +1 x88 +1 x91 +1 x94 +1 x97 +1 x100 +1 x103 +1 x106 +1 x109 +1 x112 +1 x115 >= 9;
-1 x61 -1 x64 -1 x67 -1 x70 -1 x73 -1 x76 -1 x79 -1 x82 -1 x85 -1 x88 -1 x91 -1 x94 -1 x97 -1 x100 -1 x103 -1 x106 -1 x109 -1 x112 -1 x115 >= -10;
+1 x62 +1 x65 +1 x68 +1 x71 +1 x74 +1 x77 +1 x80 +1 x83 +1 x86 +1 x89 +1 x92 +1 x95 +1 x98 +1 x101 +1 x104 +1 x107 +1 x110 +1 x113 +1 x116 >= 9;
-1 x62 -1 x65 -1 x68 -1 x71 -1 x74 -1 x77 -1 x80 -1 x83 -1 x86 -1 x89 -1 x92 -1 x95 -1 x98 -1 x101 -1 x104 -1 x107 -1 x110 -1 x113 -1 x116 >= -10;
+1 x63 +1 x66 +1 x69 +1 x72 +1 x75 +1 x78 +1 x81 +1 x84 +1 x87 +1 x90 +1 x93 +1 x96 +1 x99 +1 x102 +1 x105 +1 x108 +1 x111 +1 x114 +1 x117 >= 9;
-1 x63 -1 x66 -1 x69 -1 x72 -1 x75 -1 x78 -1 x81 -1 x84 -1 x87 -1 x90 -1 x93 -1 x96 -1 x99 -1 x102 -1 x105 -1 x108 -1 x111 -1 x114 -1 x117 >= -10;
+1 x64 +1 x67 +1 x70 +1 x73 +1 x76 +1 x79 +1 x82 +1 x85 +1 x88 +1 x91 +1 x94 +1 x97 +1 x100 +1 x103 +1 x106 +1 x109 +1 x112 +1 x115 +1 x118 >= 9;
-1 x64 -1 x67 -1 x70 -1 x73 -1 x76 -1 x79 -1 x82 -1 x85 -1 x88 -1 x91 -1 x94 -1 x97 -1 x100 -1 x103 -1 x106 -1 x109 -1 x112 -1 x115 -1 x118 >= -10;
+1 x65 +1 x68 +1 x71 +1 x74 +1 x77 +1 x80 +1 x83 +1 x86 +1 x89 +1 x92 +1 x95 +1 x98 +1 x101 +1 x104 +1 x107 +1 x110 +1 x113 +1 x116 +1 x119 >= 9;
-1 x65 -1 x68 -1 x71 -1 x74 -1 x77 -1 x80 -1 x83 -1 x86 -1 x89 -1 x92 -1 x95 -1 x98 -1 x101 -1 x104 -1 x107 -1 x110 -1 x113 -1 x116 -1 x119 >= -10;
+1 x66 +1 x69 +1 x72 +1 x75 +1 x78 +1 x81 +1 x84 +1 x87 +1 x90 +1 x93 +1 x96 +1 x99 +1 x102 +1 x105 +1 x108 +1 x111 +1 x114 +1 x117 +1 x120 >= 9;
-1 x66 -1 x69 -1 x72 -1 x75 -1 x78 -1 x81 -1 x84 -1 x87 -1 x90 -1 x93 -1 x96 -1 x99 -1 x102 -1 x105 -1 x108 -1 x111 -1 x114 -1 x117 -1 x120 >= -10;
+1 x67 +1 x70 +1 x73 +1 x76 +1 x79 +1 x82 +1 x85 +1 x88 +1 x91 +1 x94 +1 x97 +1 x100 +1 x103 +1 x106 +1 x109 +1 x112 +1 x115 +1 x118 +1 x121 >= 9;
-1 x67 -1 x70 -1 x73 -1 x76 -1 x79 -1 x82 -1 x85 -1 x88 -1 x91 -1 x94 -1 x97 -1 x100 -1 x103 -1 x106 -1 x109 -1 x112 -1 x115 -1 x118 -1 x121 >= -10;
+1 x68 +1 x71 +1 x74 +1 x77 +1 x80 +1 x83 +1 x86 +1 x89 +1 x92 +1 x95 +1 x98 +1 x101 +1 x104 +1 x107 +1 x110 +1 x113 +1 x116 +1 x119 +1 x122 >= 9;
-1 x68 -1 x71 -1 x74 -1 x77 -1 x80 -1 x83 -1 x86 -1 x89 -1 x92 -1 x95 -1 x98 -1 x101 -1 x104 -1 x107 -1 x110 -1 x113 -1 x116 -1 x119 -1 x122 >= -10;
+1 x69 +1 x72 +1 x75 +1 x78 +1 x81 +1 x84 +1 x87 +1 x90 +1 x93 +1 x96 +1 x99 +1 x102 +1 x105 +1 x108 +1 x111 +1 x114 +1 x117 +1 x120 +1 x123 >= 9;
-1 x69 -1 x72 -1 x75 -1 x78 -1 x81 -1 x84 -1 x87 -1 x90 -1 x93 -1 x96 -1 x99 -1 x102 -1 x105 -1 x108 -1 x111 -1 x114 -1 x117 -1 x120 -1 x123 >= -10;
+1 x70 +1 x73 +1 x76 +1 x79 +1 x82 +1 x85 +1 x88 +1 x91 +1 x94 +1 x97 +1 x100 +1 x103 +1 x106 +1 x109 +1 x112 +1 x115 +1 x118 +1 x121 +1 x124 >= 9;
-1 x70 -1 x73 -1 x76 -1 x79 -1 x82 -1 x85 -1 x88 -1 x91 -1 x94 -1 x97 -1 x100 -1 x103 -1 x106 -1 x109 -1 x112 -1 x115 -1 x118 -1 x121 -1 x124 >= -10;
+1 x71 +1 x74 +1 x77 +1 x80 +1 x83 +1 x86 +1 x89 +1 x92 +1 x95 +1 x98 +1 x101 +1 x104 +1 x107 +1 x110 +1 x113 +1 x116 +1 x119 +1 x122 +1 x125 >= 9;
-1 x71 -1 x74 -1 x77 -1 x80 -1 x83 -1 x86 -1 x89 -1 x92 -1 x95 -1 x98 -1 x101 -1 x104 -1 x107 -1 x110 -1 x113 -1 x116 -1 x119 -1 x122 -1 x125 >= -10;
+1 x72 +1 x75 +1 x78 +1 x81 +1 x84 +1 x87 +1 x90 +1 x93 +1 x96 +1 x99 +1 x102 +1 x105 +1 x108 +1 x111 +1 x114 +1 x117 +1 x120 +1 x123 +1 x126 >= 9;
-1 x72 -1 x75 -1 x78 -1 x81 -1 x84 -1 x87 -1 x90 -1 x93 -1 x96 -1 x99 -1 x102 -1 x105 -1 x108 -1 x111 -1 x114 -1 x117 -1 x120 -1 x123 -1 x126 >= -10;
+1 x73 +1 x76 +1 x79 +1 x82 +1 x85 +1 x88 +1 x91 +1 x94 +1 x97 +1 x100 +1 x103 +1 x106 +1 x109 +1 x112 +1 x115 +1 x118 +1 x121 +1 x124 +1 x127 >= 9;
-1 x73 -1 x76 -1 x79 -1 x82 -1 x85 -1 x88 -1 x91 -1 x94 -1 x97 -1 x100 -1 x103 -1 x106 -1 x109 -1 x112 -1 x115 -1 x118 -1 x121 -1 x124 -1 x127 >= -10;
+1 x74 +1 x77 +1 x80 +1 x83 +1 x86 +1 x89 +1 x92 +1 x95 +1 x98 +1 x101 +1 x104 +1 x107 +1 x110 +1 x113 +1 x116 +1 x119 +1 x122 +1 x125 +1 x128 >= 9;
-1 x74 -1 x77 -1 x80 -1 x83 -1 x86 -1 x89 -1 x92 -1 x95 -1 x98 -1 x101 -1 x104 -1 x107 -1 x110 -1 x113 -1 x116 -1 x119 -1 x122 -1 x125 -1 x128 >= -10;
+1 x75 +1 x78 +1 x81 +1 x84 +1 x87 +1 x90 +1 x93 +1 x96 +1 x99 +1 x102 +1 x105 +1 x108 +1 x111 +1 x114 +1 x117 +1 x120 +1 x123 +1 x126 +1 x129 >= 9;
-1 x75 -1 x78 -1 x81 -1 x84 -1 x87 -1 x90 -1 x93 -1 x96 -1 x99 -1 x102 -1 x105 -1 x108 -1 x111 -1 x114 -1 x117 -1 x120 -1 x123 -1 x126 -1 x129 >= -10;
+1 x76 +1 x79 +1 x82 +1 x85 +1 x88 +1 x91 +1 x94 +1 x97 +1 x100 +1 x103 +1 x106 +1 x109 +1 x112 +1 x115 +1 x118 +1 x121 +1 x124 +1 x127 +1 x130 >= 9;
-1 x76 -1 x79 -1 x82 -1 x85 -1 x88 -1 x91 -1 x94 -1 x97 -1 x100 -1 x103 -1 x106 -1 x109 -1 x112 -1 x115 -1 x118 -1 x121 -1 x124 -1 x127 -1 x130 >= -10;
+1 x77 +1 x80 +1 x83 +1 x86 +1 x89 +1 x92 +1 x95 +1 x98 +1 x101 +1 x104 +1 x107 +1 x110 +1 x113 +1 x116 +1 x119 +1 x122 +1 x125 +1 x128 +1 x131 >= 9;
-1 x77 -1 x80 -1 x83 -1 x86 -1 x89 -1 x92 -1 x95 -1 x98 -1 x101 -1 x104 -1 x107 -1 x110 -1 x113 -1 x116 -1 x119 -1 x122 -1 x125 -1 x128 -1 x131 >= -10;
+1 x78 +1 x81 +1 x84 +1 x87 +1 x90 +1 x93 +1 x96 +1 x99 +1 x102 +1 x105 +1 x108 +1 x111 +1 x114 +1 x117 +1 x120 +1 x123 +1 x126 +1 x129 +1 x132 >= 9;
-1 x78 -1 x81 -1 x84 -1 x87 -1 x90 -1 x93 -1 x96 -1 x99 -1 x102 -1 x105 -1 x108 -1 x111 -1 x114 -1 x117 -1 x120 -1 x123 -1 x126 -1 x129 -1 x132 >= -10;
+1 x79 +1 x82 +1 x85 +1 x88 +1 x91 +1 x94 +1 x97 +1 x100 +1 x103 +1 x106 +1 x109 +1 x112 +1 x115 +1 x118 +1 x121 +1 x124 +1 x127 +1 x130 +1 x133 >= 9;
-1 x79 -1 x82 -1 x85 -1 x88 -1 x91 -1 x94 -1 x97 -1 x100 -1 x103 -1 x106 -1 x109 -1 x112 -1 x115 -1 x118 -1 x121 -1 x124 -1 x127 -1 x130 -1 x133 >= -10;
+1 x80 +1 x83 +1 x86 +1 x89 +1 x92 +1 x95 +1 x98 +1 x101 +1 x104 +1 x107 +1 x110 +1 x113 +1 x116 +1 x119 +1 x122 +1 x125 +1 x128 +1 x131 +1 x134 >= 9;
-1 x80 -1 x83 -1 x86 -1 x89 -1 x92 -1 x95 -1 x98 -1 x101 -1 x104 -1 x107 -1 x110 -1 x113 -1 x116 -1 x119 -1 x122 -1 x125 -1 x128 -1 x131 -1 x134 >= -10;
+1 x81 +1 x84 +1 x87 +1 x90 +1 x93 +1 x96 +1 x99 +1 x102 +1 x105 +1 x108 +1 x111 +1 x114 +1 x117 +1 x120 +1 x123 +1 x126 +1 x129 +1 x132 +1 x135 >= 9;
-1 x81 -1 x84 -1 x87 -1 x90 -1 x93 -1 x96 -1 x99 -1 x102 -1 x105 -1 x108 -1 x111 -1 x114 -1 x117 -1 x120 -1 x123 -1 x126 -1 x129 -1 x132 -1 x135 >= -10;
+1 x82 +1 x85 +1 x88 +1 x91 +1 x94 +1 x97 +1 x100 +1 x103 +1 x106 +1 x109 +1 x112 +1 x115 +1 x118 +1 x121 +1 x124 +1 x127 +1 x130 +1 x133 +1 x136 >= 9;
-1 x82 -1 x85 -1 x88 -1 x91 -1 x94 -1 x97 -1 x100 -1 x103 -1 x106 -1 x109 -1 x112 -1 x115 -1 x118 -1 x121 -1 x124 -1 x127 -1 x130 -1 x133 -1 x136 >= -10;
+1 x83 +1 x86 +1 x89 +1 x92 +1 x95 +1 x98 +1 x101 +1 x104 +1 x107 +1 x110 +1 x113 +1 x116 +1 x119 +1 x122 +1 x125 +1 x128 +1 x131 +1 x134 +1 x137 >= 9;
-1 x83 -1 x86 -1 x89 -1 x92 -1 x95 -1 x98 -1 x101 -1 x104 -1 x107 -1 x110 -1 x113 -1 x116 -1 x119 -1 x122 -1 x125 -1 x128 -1 x131 -1 x134 -1 x137 >= -10;
+1 x84 +1 x87 +1 x90 +1 x93 +1 x96 +1 x99 +1 x102 +1 x105 +1 x108 +1 x111 +1 x114 +1 x117 +1 x120 +1 x123 +1 x126 +1 x129 +1 x132 +1 x135 +1 x138 >= 9;
-1 x84 -1 x87 -1 x90 -1 x93 -1 x96 -1 x99 -1 x102 -1 x105 -1 x108 -1 x111 -1 x114 -1 x117 -1 x120 -1 x123 -1 x126 -1 x129 -1 x132 -1 x135 -1 x138 >= -10;
+1 x85 +1 x88 +1 x91 +1 x94 +1 x97 +1 x100 +1 x103 +1 x106 +1 x109 +1 x112 +1 x115 +1 x118 +1 x121 +1 x124 +1 x127 +1 x130 +1 x133 +1 x136 +1 x139 >= 9;
-1 x85 -1 x88 -1 x91 -1 x94 -1 x97 -1 x100 -1 x103 -1 x106 -1 x109 -1 x112 -1 x115 -1 x118 -1 x121 -1 x124 -1 x127 -1 x130 -1 x133 -1 x136 -1 x139 >= -10;
+1 x86 +1 x89 +1 x92 +1 x95 +1 x98 +1 x101 +1 x104 +1 x107 +1 x110 +1 x113 +1 x116 +1 x119 +1 x122 +1 x125 +1 x128 +1 x131 +1 x134 +1 x137 +1 x140 >= 9;
-1 x86 -1 x89 -1 x92 -1 x95 -1 x98 -1 x101 -1 x104 -1 x107 -1 x110 -1 x113 -1 x116 -1 x119 -1 x122 -1 x125 -1 x128 -1 x131 -1 x134 -1 x137 -1 x140 >= -10;
+1 x87 +1 x90 +1 x93 +1 x96 +1 x99 +1 x102 +1 x105 +1 x108 +1 x111 +1 x114 +1 x117 +1 x120 +1 x123 +1 x126 +1 x129 +1 x132 +1 x135 +1 x138 +1 x141 >= 9;
-1 x87 -1 x90 -1 x93 -1 x96 -1 x99 -1 x102 -1 x105 -1 x108 -1 x111 -1 x114 -1 x117 -1 x120 -1 x123 -1 x126 -1 x129 -1 x132 -1 x135 -1 x138 -1 x141 >= -10;
+1 x88 +1 x91 +1 x94 +1 x97 +1 x100 +1 x103 +1 x106 +1 x109 +1 x112 +1 x115 +1 x118 +1 x121 +1 x124 +1 x127 +1 x130 +1 x133 +1 x136 +1 x139 +1 x142 >= 9;
-1 x88 -1 x91 -1 x94 -1 x97 -1 x100 -1 x103 -1 x106 -1 x109 -1 x112 -1 x115 -1 x118 -1 x121 -1 x124 -1 x127 -1 x130 -1 x133 -1 x136 -1 x139 -1 x142 >= -10;
+1 x89 +1 x92 +1 x95 +1 x98 +1 x101 +1 x104 +1 x107 +1 x110 +1 x113 +1 x116 +1 x119 +1 x122 +1 x125 +1 x128 +1 x131 +1 x134 +1 x137 +1 x140 +1 x143 >= 9;
-1 x89 -1 x92 -1 x95 -1 x98 -1 x101 -1 x104 -1 x107 -1 x110 -1 x113 -1 x116 -1 x119 -1 x122 -1 x125 -1 x128 -1 x131 -1 x134 -1 x137 -1 x140 -1 x143 >= -10;
+1 x90 +1 x93 +1 x96 +1 x99 +1 x102 +1 x105 +1 x108 +1 x111 +1 x114 +1 x117 +1 x120 +1 x123 +1 x126 +1 x129 +1 x132 +1 x135 +1 x138 +1 x141 +1 x144 >= 9;
-1 x90 -1 x93 -1 x96 -1 x99 -1 x102 -1 x105 -1 x108 -1 x111 -1 x114 -1 x117 -1 x120 -1 x123 -1 x126 -1 x129 -1 x132 -1 x135 -1 x138 -1 x141 -1 x144 >= -10;
+1 x91 +1 x94 +1 x97 +1 x100 +1 x103 +1 x106 +1 x109 +1 x112 +1 x115 +1 x118 +1 x121 +1 x124 +1 x127 +1 x130 +1 x133 +1 x136 +1 x139 +1 x142 +1 x145 >= 9;
-1 x91 -1 x94 -1 x97 -1 x100 -1 x103 -1 x106 -1 x109 -1 x112 -1 x115 -1 x118 -1 x121 -1 x124 -1 x127 -1 x130 -1 x133 -1 x136 -1 x139 -1 x142 -1 x145 >= -10;
+1 x92 +1 x95 +1 x98 +1 x101 +1 x104 +1 x107 +1 x110 +1 x113 +1 x116 +1 x119 +1 x122 +1 x125 +1 x128 +1 x131 +1 x134 +1 x137 +1 x140 +1 x143 +1 x146 >= 9;
-1 x92 -1 x95 -1 x98 -1 x101 -1 x104 -1 x107 -1 x110 -1 x113 -1 x116 -1 x119 -1 x122 -1 x125 -1 x128 -1 x131 -1 x134 -1 x137 -1 x140 -1 x143 -1 x146 >= -10;
+1 x93 +1 x96 +1 x99 +1 x102 +1 x105 +1 x108 +1 x111 +1 x114 +1 x117 +1 x120 +1 x123 +1 x126 +1 x129 +1 x132 +1 x135 +1 x138 +1 x141 +1 x144 +1 x147 >= 9;
-1 x93 -1 x96 -1 x99 -1 x102 -1 x105 -1 x108 -1 x111 -1 x114 -1 x117 -1 x120 -1 x123 -1 x126 -1 x129 -1 x132 -1 x135 -1 x138 -1 x141 -1 x144 -1 x147 >= -10;
+1 x94 +1 x97 +1 x100 +1 x103 +1 x106 +1 x109 +1 x112 +1 x115 +1 x118 +1 x121 +1 x124 +1 x127 +1 x130 +1 x133 +1 x136 +1 x139 +1 x142 +1 x145 +1 x148 >= 9;
-1 x94 -1 x97 -1 x100 -1 x103 -1 x106 -1 x109 -1 x112 -1 x115 -1 x118 -1 x121 -1 x124 -1 x127 -1 x130 -1 x133 -1 x136 -1 x139 -1 x142 -1 x145 -1 x148 >= -10;
+1 x95 +1 x98 +1 x101 +1 x104 +1 x107 +1 x110 +1 x113 +1 x116 +1 x119 +1 x122 +1 x125 +1 x128 +1 x131 +1 x134 +1 x137 +1 x140 +1 x143 +1 x146 +1 x149 >= 9;
-1 x95 -1 x98 -1 x101 -1 x104 -1 x107 -1 x110 -1 x113 -1 x116 -1 x119 -1 x122 -1 x125 -1 x128 -1 x131 -1 x134 -1 x137 -1 x140 -1 x143 -1 x146 -1 x149 >= -10;
+1 x96 +1 x99 +1 x102 +1 x105 +1 x108 +1 x111 +1 x114 +1 x117 +1 x120 +1 x123 +1 x126 +1 x129 +1 x132 +1 x135 +1 x138 +1 x141 +1 x144 +1 x147 +1 x150 >= 9;
-1 x96 -1 x99 -1 x102 -1 x105 -1 x108 -1 x111 -1 x114 -1 x117 -1 x120 -1 x123 -1 x126 -1 x129 -1 x132 -1 x135 -1 x138 -1 x141 -1 x144 -1 x147 -1 x150 >= -10;
+1 x97 +1 x100 +1 x103 +1 x106 +1 x109 +1 x112 +1 x115 +1 x118 +1 x121 +1 x124 +1 x127 +1 x130 +1 x133 +1 x136 +1 x139 +1 x142 +1 x145 +1 x148 +1 x151 >= 9;
-1 x97 -1 x100 -1 x103 -1 x106 -1 x109 -1 x112 -1 x115 -1 x118 -1 x121 -1 x124 -1 x127 -1 x130 -1 x133 -1 x136 -1 x139 -1 x142 -1 x145 -1 x148 -1 x151 >= -10;
+1 x98 +1 x101 +1 x104 +1 x107 +1 x110 +1 x113 +1 x116 +1 x119 +1 x122 +1 x125 +1 x128 +1 x131 +1 x134 +1 x137 +1 x140 +1 x143 +1 x146 +1 x149 +1 x152 >= 9;
-1 x98 -1 x101 -1 x104 -1 x107 -1 x110 -1 x113 -1 x116 -1 x119 -1 x122 -1 x125 -1 x128 -1 x131 -1 x134 -1 x137 -1 x140 -1 x143 -1 x146 -1 x149 -1 x152 >= -10;
+1 x99 +1 x102 +1 x105 +1 x108 +1 x111 +1 x114 +1 x117 +1 x120 +1 x123 +1 x126 +1 x129 +1 x132 +1 x135 +1 x138 +1 x141 +1 x144 +1 x147 +1 x150 +1 x153 >= 9;
-1 x99 -1 x102 -1 x105 -1 x108 -1 x111 -1 x114 -1 x117 -1 x120 -1 x123 -1 x126 -1 x129 -1 x132 -1 x135 -1 x138 -1 x141 -1 x144 -1 x147 -1 x150 -1 x153 >= -10;
+1 x100 +1 x103 +1 x106 +1 x109 +1 x112 +1 x115 +1 x118 +1 x121 +1 x124 +1 x127 +1 x130 +1 x133 +1 x136 +1 x139 +1 x142 +1 x145 +1 x148 +1 x151 +1 x154 >= 9;
-1 x100 -1 x103 -1 x106 -1 x109 -1 x112 -1 x115 -1 x118 -1 x121 -1 x124 -1 x127 -1 x130 -1 x133 -1 x136 -1 x139 -1 x142 -1 x145 -1 x148 -1 x151 -1 x154 >= -10;
+1 x101 +1 x104 +1 x107 +1 x110 +1 x113 +1 x116 +1 x119 +1 x122 +1 x125 +1 x128 +1 x131 +1 x134 +1 x137 +1 x140 +1 x143 +1 x146 +1 x149 +1 x152 +1 x155 >= 9;
-1 x101 -1 x104 -1 x107 -1 x110 -1 x113 -1 x116 -1 x119 -1 x122 -1 x125 -1 x128 -1 x131 -1 x134 -1 x137 -1 x140 -1 x143 -1 x146 -1 x149 -1 x152 -1 x155 >= -10;
+1 x102 +1 x105 +1 x108 +1 x111 +1 x114 +1 x117 +1 x120 +1 x123 +1 x126 +1 x129 +1 x132 +1 x135 +1 x138 +1 x141 +1 x144 +1 x147 +1 x150 +1 x153 +1 x156 >= 9;
-1 x102 -1 x105 -1 x108 -1 x111 -1 x114 -1 x117 -1 x120 -1 x123 -1 x126 -1 x129 -1 x132 -1 x135 -1 x138 -1 x141 -1 x144 -1 x147 -1 x150 -1 x153 -1 x156 >= -10;
+1 x103 +1 x106 +1 x109 +1 x112 +1 x115 +1 x118 +1 x121 +1 x124 +1 x127 +1 x130 +1 x133 +1 x136 +1 x139 +1 x142 +1 x145 +1 x148 +1 x151 +1 x154 +1 x157 >= 9;
-1 x103 -1 x106 -1 x109 -1 x112 -1 x115 -1 x118 -1 x121 -1 x124 -1 x127 -1 x130 -1 x133 -1 x136 -1 x139 -1 x142 -1 x145 -1 x148 -1 x151 -1 x154 -1 x157 >= -10;
+1 x104 +1 x107 +1 x110 +1 x113 +1 x116 +1 x119 +1 x122 +1 x125 +1 x128 +1 x131 +1 x134 +1 x137 +1 x140 +1 x143 +1 x146 +1 x149 +1 x152 +1 x155 +1 x158 >= 9;
-1 x104 -1 x107 -1 x110 -1 x113 -1 x116 -1 x119 -1 x122 -1 x125 -1 x128 -1 x131 -1 x134 -1 x137 -1 x140 -1 x143 -1 x146 -1 x149 -1 x152 -1 x155 -1 x158 >= -10;
+1 x105 +1 x108 +1 x111 +1 x114 +1 x117 +1 x120 +1 x123 +1 x126 +1 x129 +1 x132 +1 x135 +1 x138 +1 x141 +1 x144 +1 x147 +1 x150 +1 x153 +1 x156 +1 x159 >= 9;
-1 x105 -1 x108 -1 x111 -1 x114 -1 x117 -1 x120 -1 x123 -1 x126 -1 x129 -1 x132 -1 x135 -1 x138 -1 x141 -1 x144 -1 x147 -1 x150 -1 x153 -1 x156 -1 x159 >= -10;
+1 x106 +1 x109 +1 x112 +1 x115 +1 x118 +1 x121 +1 x124 +1 x127 +1 x130 +1 x133 +1 x136 +1 x139 +1 x142 +1 x145 +1 x148 +1 x151 +1 x154 +1 x157 +1 x160 >= 9;
-1 x106 -1 x109 -1 x112 -1 x115 -1 x118 -1 x121 -1 x124 -1 x127 -1 x130 -1 x133 -1 x136 -1 x139 -1 x142 -1 x145 -1 x148 -1 x151 -1 x154 -1 x157 -1 x160 >= -10;
+1 x107 +1 x110 +1 x113 +1 x116 +1 x119 +1 x122 +1 x125 +1 x128 +1 x131 +1 x134 +1 x137 +1 x140 +1 x143 +1 x146 +1 x149 +1 x152 +1 x155 +1 x158 +1 x161 >= 9;
-1 x107 -1 x110 -1 x113 -1 x116 -1 x119 -1 x122 -1 x125 -1 x128 -1 x131 -1 x134 -1 x137 -1 x140 -1 x143 -1 x146 -1 x149 -1 x152 -1 x155 -1 x158 -1 x161 >= -10;
+1 x108 +1 x111 +1 x114 +1 x117 +1 x120 +1 x123 +1 x126 +1 x129 +1 x132 +1 x135 +1 x138 +1 x141 +1 x144 +1 x147 +1 x150 +1 x153 +1 x156 +1 x159 +1 x162 >= 9;
-1 x108 -1 x111 -1 x114 -1 x117 -1 x120 -1 x123 -1 x126 -1 x129 -1 x132 -1 x135 -1 x138 -1 x141 -1 x144 -1 x147 -1 x150 -1 x153 -1 x156 -1 x159 -1 x162 >= -10;
+1 x109 +1 x112 +1 x115 +1 x118 +1 x121 +1 x124 +1 x127 +1 x130 +1 x133 +1 x136 +1 x139 +1 x142 +1 x145 +1 x148 +1 x151 +1 x154 +1 x157 +1 x160 +1 x163 >= 9;
-1 x109 -1 x112 -1 x115 -1 x118 -1 x121 -1 x124 -1 x127 -1 x130 -1 x133 -1 x136 -1 x139 -1 x142 -1 x145 -1 x148 -1 x151 -1 x154 -1 x157 -1 x160 -1 x163 >= -10;
+1 x110 +1 x113 +1 x116 +1 x119 +1 x122 +1 x125 +1 x128 +1 x131 +1 x134 +1 x137 +1 x140 +1 x143 +1 x146 +1 x149 +1 x152 +1 x155 +1 x158 +1 x161 +1 x164 >= 9;
-1 x110 -1 x113 -1 x116 -1 x119 -1 x122 -1 x125 -1 x128 -1 x131 -1 x134 -1 x137 -1 x140 -1 x143 -1 x146 -1 x149 -1 x152 -1 x155 -1 x158 -1 x161 -1 x164 >= -10;
+1 x111 +1 x114 +1 x117 +1 x120 +1 x123 +1 x126 +1 x129 +1 x132 +1 x135 +1 x138 +1 x141 +1 x144 +1 x147 +1 x150 +1 x153 +1 x156 +1 x159 +1 x162 +1 x165 >= 9;
-1 x111 -1 x114 -1 x117 -1 x120 -1 x123 -1 x126 -1 x129 -1 x132 -1 x135 -1 x138 -1 x141 -1 x144 -1 x147 -1 x150 -1 x153 -1 x156 -1 x159 -1 x162 -1 x165 >= -10;
+1 x112 +1 x115 +1 x118 +1 x121 +1 x124 +1 x127 +1 x130 +1 x133 +1 x136 +1 x139 +1 x142 +1 x145 +1 x148 +1 x151 +1 x154 +1 x157 +1 x160 +1 x163 +1 x166 >= 9;
-1 x112 -1 x115 -1 x118 -1 x121 -1 x124 -1 x127 -1 x130 -1 x133 -1 x136 -1 x139 -1 x142 -1 x145 -1 x148 -1 x151 -1 x154 -1 x157 -1 x160 -1 x163 -1 x166 >= -10;
+1 x113 +1 x116 +1 x119 +1 x122 +1 x125 +1 x128 +1 x131 +1 x134 +1 x137 +1 x140 +1 x143 +1 x146 +1 x149 +1 x152 +1 x155 +1 x158 +1 x161 +1 x164 +1 x167 >= 9;
-1 x113 -1 x116 -1 x119 -1 x122 -1 x125 -1 x128 -1 x131 -1 x134 -1 x137 -1 x140 -1 x143 -1 x146 -1 x149 -1 x152 -1 x155 -1 x158 -1 x161 -1 x164 -1 x167 >= -10;
+1 x114 +1 x117 +1 x120 +1 x123 +1 x126 +1 x129 +1 x132 +1 x135 +1 x138 +1 x141 +1 x144 +1 x147 +1 x150 +1 x153 +1 x156 +1 x159 +1 x162 +1 x165 +1 x168 >= 9;
-1 x114 -1 x117 -1 x120 -1 x123 -1 x126 -1 x129 -1 x132 -1 x135 -1 x138 -1 x141 -1 x144 -1 x147 -1 x150 -1 x153 -1 x156 -1 x159 -1 x162 -1 x165 -1 x168 >= -10;
+1 x115 +1 x118 +1 x121 +1 x124 +1 x127 +1 x130 +1 x133 +1 x136 +1 x139 +1 x142 +1 x145 +1 x148 +1 x151 +1 x154 +1 x157 +1 x160 +1 x163 +1 x166 +1 x169 >= 9;
-1 x115 -1 x118 -1 x121 -1 x124 -1 x127 -1 x130 -1 x133 -1 x136 -1 x139 -1 x142 -1 x145 -1 x148 -1 x151 -1 x154 -1 x157 -1 x160 -1 x163 -1 x166 -1 x169 >= -10;
+1 x116 +1 x119 +1 x122 +1 x125 +1 x128 +1 x131 +1 x134 +1 x137 +1 x140 +1 x143 +1 x146 +1 x149 +1 x152 +1 x155 +1 x158 +1 x161 +1 x164 +1 x167 +1 x170 >= 9;
-1 x116 -1 x119 -1 x122 -1 x125 -1 x128 -1 x131 -1 x134 -1 x137 -1 x140 -1 x143 -1 x146 -1 x149 -1 x152 -1 x155 -1 x158 -1 x161 -1 x164 -1 x167 -1 x170 >= -10;
+1 x117 +1 x120 +1 x123 +1 x126 +1 x129 +1 x132 +1 x135 +1 x138 +1 x141 +1 x144 +1 x147 +1 x150 +1 x153 +1 x156 +1 x159 +1 x162 +1 x165 +1 x168 +1 x171 >= 9;
-1 x117 -1 x120 -1 x123 -1 x126 -1 x129 -1 x132 -1 x135 -1 x138 -1 x141 -1 x144 -1 x147 -1 x150 -1 x153 -1 x156 -1 x159 -1 x162 -1 x165 -1 x168 -1 x171 >= -10;
+1 x118 +1 x121 +1 x124 +1 x127 +1 x130 +1 x133 +1 x136 +1 x139 +1 x142 +1 x145 +1 x148 +1 x151 +1 x154 +1 x157 +1 x160 +1 x163 +1 x166 +1 x169 +1 x172 >= 9;
-1 x118 -1 x121 -1 x124 -1 x127 -1 x130 -1 x133 -1 x136 -1 x139 -1 x142 -1 x145 -1 x148 -1 x151 -1 x154 -1 x157 -1 x160 -1 x163 -1 x166 -1 x169 -1 x172 >= -10;
+1 x119 +1 x122 +1 x125 +1 x128 +1 x131 +1 x134 +1 x137 +1 x140 +1 x143 +1 x146 +1 x149 +1 x152 +1 x155 +1 x158 +1 x161 +1 x164 +1 x167 +1 x170 +1 x173 >= 9;
-1 x119 -1 x122 -1 x125 -1 x128 -1 x131 -1 x134 -1 x137 -1 x140 -1 x143 -1 x146 -1 x149 -1 x152 -1 x155 -1 x158 -1 x161 -1 x164 -1 x167 -1 x170 -1 x173 >= -10;
+1 x120 +1 x123 +1 x126 +1 x129 +1 x132 +1 x135 +1 x138 +1 x141 +1 x144 +1 x147 +1 x150 +1 x153 +1 x156 +1 x159 +1 x162 +1 x165 +1 x168 +1 x171 +1 x174 >= 9;
-1 x120 -1 x123 -1 x126 -1 x129 -1 x132 -1 x135 -1 x138 -1 x141 -1 x144 -1 x147 -1 x150 -1 x153 -1 x156 -1 x159 -1 x162 -1 x165 -1 x168 -1 x171 -1 x174 >= -10;
+1 x121 +1 x124 +1 x127 +1 x130 +1 x133 +1 x136 +1 x139 +1 x142 +1 x145 +1 x148 +1 x151 +1 x154 +1 x157 +1 x160 +1 x163 +1 x166 +1 x169 +1 x172 +1 x175 >= 9;
-1 x121 -1 x124 -1 x127 -1 x130 -1 x133 -1 x136 -1 x139 -1 x142 -1 x145 -1 x148 -1 x151 -1 x154 -1 x157 -1 x160 -1 x163 -1 x166 -1 x169 -1 x172 -1 x175 >= -10;
+1 x122 +1 x125 +1 x128 +1 x131 +1 x134 +1 x137 +1 x140 +1 x143 +1 x146 +1 x149 +1 x152 +1 x155 +1 x158 +1 x161 +1 x164 +1 x167 +1 x170 +1 x173 +1 x176 >= 9;
-1 x122 -1 x125 -1 x128 -1 x131 -1 x134 -1 x137 -1 x140 -1 x143 -1 x146 -1 x149 -1 x152 -1 x155 -1 x158 -1 x161 -1 x164 -1 x167 -1 x170 -1 x173 -1 x176 >= -10;
+1 x123 +1 x126 +1 x129 +1 x132 +1 x135 +1 x138 +1 x141 +1 x144 +1 x147 +1 x150 +1 x153 +1 x156 +1 x159 +1 x162 +1 x165 +1 x168 +1 x171 +1 x174 +1 x177 >= 9;
-1 x123 -1 x126 -1 x129 -1 x132 -1 x135 -1 x138 -1 x141 -1 x144 -1 x147 -1 x150 -1 x153 -1 x156 -1 x159 -1 x162 -1 x165 -1 x168 -1 x171 -1 x174 -1 x177 >= -10;
+1 x124 +1 x127 +1 x130 +1 x133 +1 x136 +1 x139 +1 x142 +1 x145 +1 x148 +1 x151 +1 x154 +1 x157 +1 x160 +1 x163 +1 x166 +1 x169 +1 x172 +1 x175 +1 x178 >= 9;
-1 x124 -1 x127 -1 x130 -1 x133 -1 x136 -1 x139 -1 x142 -1 x145 -1 x148 -1 x151 -1 x154 -1 x157 -1 x160 -1 x163 -1 x166 -1 x169 -1 x172 -1 x175 -1 x178 >= -10;
+1 x125 +1 x128 +1 x131 +1 x134 +1 x137 +1 x140 +1 x143 +1 x146 +1 x149 +1 x152 +1 x155 +1 x158 +1 x161 +1 x164 +1 x167 +1 x170 +1 x173 +1 x176 +1 x179 >= 9;
-1 x125 -1 x128 -1 x131 -1 x134 -1 x137 -1 x140 -1 x143 -1 x146 -1 x149 -1 x152 -1 x155 -1 x158 -1 x161 -1 x164 -1 x167 -1 x170 -1 x173 -1 x176 -1 x179 >= -10;
+1 x126 +1 x129 +1 x132 +1 x135 +1 x138 +1 x141 +1 x144 +1 x147 +1 x150 +1 x153 +1 x156 +1 x159 +1 x162 +1 x165 +1 x168 +1 x171 +1 x174 +1 x177 +1 x180 >= 9;
-1 x126 -1 x129 -1 x132 -1 x135 -1 x138 -1 x141 -1 x144 -1 x147 -1 x150 -1 x153 -1 x156 -1 x159 -1 x162 -1 x165 -1 x168 -1 x171 -1 x174 -1 x177 -1 x180 >= -10;
+1 x127 +1 x130 +1 x133 +1 x136 +1 x139 +1 x142 +1 x145 +1 x148 +1 x151 +1 x154 +1 x157 +1 x160 +1 x163 +1 x166 +1 x169 +1 x172 +1 x175 +1 x178 +1 x181 >= 9;
-1 x127 -1 x130 -1 x133 -1 x136 -1 x139 -1 x142 -1 x145 -1 x148 -1 x151 -1 x154 -1 x157 -1 x160 -1 x163 -1 x166 -1 x169 -1 x172 -1 x175 -1 x178 -1 x181 >= -10;
+1 x128 +1 x131 +1 x134 +1 x137 +1 x140 +1 x143 +1 x146 +1 x149 +1 x152 +1 x155 +1 x158 +1 x161 +1 x164 +1 x167 +1 x170 +1 x173 +1 x176 +1 x179 +1 x182 >= 9;
-1 x128 -1 x131 -1 x134 -1 x137 -1 x140 -1 x143 -1 x146 -1 x149 -1 x152 -1 x155 -1 x158 -1 x161 -1 x164 -1 x167 -1 x170 -1 x173 -1 x176 -1 x179 -1 x182 >= -10;
+1 x129 +1 x132 +1 x135 +1 x138 +1 x141 +1 x144 +1 x147 +1 x150 +1 x153 +1 x156 +1 x159 +1 x162 +1 x165 +1 x168 +1 x171 +1 x174 +1 x177 +1 x180 +1 x183 >= 9;
-1 x129 -1 x132 -1 x135 -1 x138 -1 x141 -1 x144 -1 x147 -1 x150 -1 x153 -1 x156 -1 x159 -1 x162 -1 x165 -1 x168 -1 x171 -1 x174 -1 x177 -1 x180 -1 x183 >= -10;
+1 x130 +1 x133 +1 x136 +1 x139 +1 x142 +1 x145 +1 x148 +1 x151 +1 x154 +1 x157 +1 x160 +1 x163 +1 x166 +1 x169 +1 x172 +1 x175 +1 x178 +1 x181 +1 x184 >= 9;
-1 x130 -1 x133 -1 x136 -1 x139 -1 x142 -1 x145 -1 x148 -1 x151 -1 x154 -1 x157 -1 x160 -1 x163 -1 x166 -1 x169 -1 x172 -1 x175 -1 x178 -1 x181 -1 x184 >= -10;
+1 x131 +1 x134 +1 x137 +1 x140 +1 x143 +1 x146 +1 x149 +1 x152 +1 x155 +1 x158 +1 x161 +1 x164 +1 x167 +1 x170 +1 x173 +1 x176 +1 x179 +1 x182 +1 x185 >= 9;
-1 x131 -1 x134 -1 x137 -1 x140 -1 x143 -1 x146 -1 x149 -1 x152 -1 x155 -1 x158 -1 x161 -1 x164 -1 x167 -1 x170 -1 x173 -1 x176 -1 x179 -1 x182 -1 x185 >= -10;
+1 x132 +1 x135 +1 x138 +1 x141 +1 x144 +1 x147 +1 x150 +1 x153 +1 x156 +1 x159 +1 x162 +1 x165 +1 x168 +1 x171 +1 x174 +1 x177 +1 x180 +1 x183 +1 x186 >= 9;
-1 x132 -1 x135 -1 x138 -1 x141 -1 x144 -1 x147 -1 x150 -1 x153 -1 x156 -1 x159 -1 x162 -1 x165 -1 x168 -1 x171 -1 x174 -1 x177 -1 x180 -1 x183 -1 x186 >= -10;
+1 x133 +1 x136 +1 x139 +1 x142 +1 x145 +1 x148 +1 x151 +1 x154 +1 x157 +1 x160 +1 x163 +1 x166 +1 x169 +1 x172 +1 x175 +1 x178 +1 x181 +1 x184 +1 x187 >= 9;
-1 x133 -1 x136 -1 x139 -1 x142 -1 x145 -1 x148 -1 x151 -1 x154 -1 x157 -1 x160 -1 x163 -1 x166 -1 x169 -1 x172 -1 x175 -1 x178 -1 x181 -1 x184 -1 x187 >= -10;
+1 x134 +1 x137 +1 x140 +1 x143 +1 x146 +1 x149 +1 x152 +1 x155 +1 x158 +1 x161 +1 x164 +1 x167 +1 x170 +1 x173 +1 x176 +1 x179 +1 x182 +1 x185 +1 x188 >= 9;
-1 x134 -1 x137 -1 x140 -1 x143 -1 x146 -1 x149 -1 x152 -1 x155 -1 x158 -1 x161 -1 x164 -1 x167 -1 x170 -1 x173 -1 x176 -1 x179 -1 x182 -1 x185 -1 x188 >= -10;
+1 x135 +1 x138 +1 x141 +1 x144 +1 x147 +1 x150 +1 x153 +1 x156 +1 x159 +1 x162 +1 x165 +1 x168 +1 x171 +1 x174 +1 x177 +1 x180 +1 x183 +1 x186 +1 x189 >= 9;
-1 x135 -1 x138 -1 x141 -1 x144 -1 x147 -1 x150 -1 x153 -1 x156 -1 x159 -1 x162 -1 x165 -1 x168 -1 x171 -1 x174 -1 x177 -1 x180 -1 x183 -1 x186 -1 x189 >= -10;
+1 x136 +1 x139 +1 x142 +1 x145 +1 x148 +1 x151 +1 x154 +1 x157 +1 x160 +1 x163 +1 x166 +1 x169 +1 x172 +1 x175 +1 x178 +1 x181 +1 x184 +1 x187 +1 x190 >= 9;
-1 x136 -1 x139 -1 x142 -1 x145 -1 x148 -1 x151 -1 x154 -1 x157 -1 x160 -1 x163 -1 x166 -1 x169 -1 x172 -1 x175 -1 x178 -1 x181 -1 x184 -1 x187 -1 x190 >= -10;
+1 x137 +1 x140 +1 x143 +1 x146 +1 x149 +1 x152 +1 x155 +1 x158 +1 x161 +1 x164 +1 x167 +1 x170 +1 x173 +1 x176 +1 x179 +1 x182 +1 x185 +1 x188 +1 x191 >= 9;
-1 x137 -1 x140 -1 x143 -1 x146 -1 x149 -1 x152 -1 x155 -1 x158 -1 x161 -1 x164 -1 x167 -1 x170 -1 x173 -1 x176 -1 x179 -1 x182 -1 x185 -1 x188 -1 x191 >= -10;
+1 x138 +1 x141 +1 x144 +1 x147 +1 x150 +1 x153 +1 x156 +1 x159 +1 x162 +1 x165 +1 x168 +1 x171 +1 x174 +1 x177 +1 x180 +1 x183 +1 x186 +1 x189 +1 x192 >= 9;
-1 x138 -1 x141 -1 x144 -1 x147 -1 x150 -1 x153 -1 x156 -1 x159 -1 x162 -1 x165 -1 x168 -1 x171 -1 x174 -1 x177 -1 x180 -1 x183 -1 x186 -1 x189 -1 x192 >= -10;
+1 x139 +1 x142 +1 x145 +1 x148 +1 x151 +1 x154 +1 x157 +1 x160 +1 x163 +1 x166 +1 x169 +1 x172 +1 x175 +1 x178 +1 x181 +1 x184 +1 x187 +1 x190 +1 x193 >= 9;
-1 x139 -1 x142 -1 x145 -1 x148 -1 x151 -1 x154 -1 x157 -1 x160 -1 x163 -1 x166 -1 x169 -1 x172 -1 x175 -1 x178 -1 x181 -1 x184 -1 x187 -1 x190 -1 x193 >= -10;
+1 x140 +1 x143 +1 x146 +1 x149 +1 x152 +1 x155 +1 x158 +1 x161 +1 x164 +1 x167 +1 x170 +1 x173 +1 x176 +1 x179 +1 x182 +1 x185 +1 x188 +1 x191 +1 x194 >= 9;
-1 x140 -1 x143 -1 x146 -1 x149 -1 x152 -1 x155 -1 x158 -1 x161 -1 x164 -1 x167 -1 x170 -1 x173 -1 x176 -1 x179 -1 x182 -1 x185 -1 x188 -1 x191 -1 x194 >= -10;
+1 x141 +1 x144 +1 x147 +1 x150 +1 x153 +1 x156 +1 x159 +1 x162 +1 x165 +1 x168 +1 x171 +1 x174 +1 x177 +1 x180 +1 x183 +1 x186 +1 x189 +1 x192 +1 x195 >= 9;
-1 x141 -1 x144 -1 x147 -1 x150 -1 x153 -1 x156 -1 x159 -1 x162 -1 x165 -1 x168 -1 x171 -1 x174 -1 x177 -1 x180 -1 x183 -1 x186 -1 x189 -1 x192 -1 x195 >= -10;
+1 x142 +1 x145 +1 x148 +1 x151 +1 x154 +1 x157 +1 x160 +1 x163 +1 x166 +1 x169 +1 x172 +1 x175 +1 x178 +1 x181 +1 x184 +1 x187 +1 x190 +1 x193 +1 x196 >= 9;
-1 x142 -1 x145 -1 x148 -1 x151 -1 x154 -1 x157 -1 x160 -1 x163 -1 x166 -1 x169 -1 x172 -1 x175 -1 x178 -1 x181 -1 x184 -1 x187 -1 x190 -1 x193 -1 x196 >= -10;
+1 x143 +1 x146 +1 x149 +1 x152 +1 x155 +1 x158 +1 x161 +1 x164 +1 x167 +1 x170 +1 x173 +1 x176 +1 x179 +1 x182 +1 x185 +1 x188 +1 x191 +1 x194 +1 x197 >= 9;
-1 x143 -1 x146 -1 x149 -1 x152 -1 x155 -1 x158 -1 x161 -1 x164 -1 x167 -1 x170 -1 x173 -1 x176 -1 x179 -1 x182 -1 x185 -1 x188 -1 x191 -1 x194 -1 x197 >= -10;
+1 x144 +1 x147 +1 x150 +1 x153 +1 x156 +1 x159 +1 x162 +1 x165 +1 x168 +1 x171 +1 x174 +1 x177 +1 x180 +1 x183 +1 x186 +1 x189 +1 x192 +1 x195 +1 x198 >= 9;
-1 x144 -1 x147 -1 x150 -1 x153 -1 x156 -1 x159 -1 x162 -1 x165 -1 x168 -1 x171 -1 x174 -1 x177 -1 x180 -1 x183 -1 x186 -1 x189 -1 x192 -1 x195 -1 x198 >= -10;
+1 x145 +1 x148 +1 x151 +1 x154 +1 x157 +1 x160 +1 x163 +1 x166 +1 x169 +1 x172 +1 x175 +1 x178 +1 x181 +1 x184 +1 x187 +1 x190 +1 x193 +1 x196 +1 x199 >= 9;
-1 x145 -1 x148 -1 x151 -1 x154 -1 x157 -1 x160 -1 x163 -1 x166 -1 x169 -1 x172 -1 x175 -1 x178 -1 x181 -1 x184 -1 x187 -1 x190 -1 x193 -1 x196 -1 x199 >= -10;
+1 x146 +1 x149 +1 x152 +1 x155 +1 x158 +1 x161 +1 x164 +1 x167 +1 x170 +1 x173 +1 x176 +1 x179 +1 x182 +1 x185 +1 x188 +1 x191 +1 x194 +1 x197 +1 x200 >= 9;
-1 x146 -1 x149 -1 x152 -1 x155 -1 x158 -1 x161 -1 x164 -1 x167 -1 x170 -1 x173 -1 x176 -1 x179 -1 x182 -1 x185 -1 x188 -1 x191 -1 x194 -1 x197 -1 x200 >= -10;
+1 x147 +1 x150 +1 x153 +1 x156 +1 x159 +1 x162 +1 x165 +1 x168 +1 x171 +1 x174 +1 x177 +1 x180 +1 x183 +1 x186 +1 x189 +1 x192 +1 x195 +1 x198 +1 x201 >= 9;
-1 x147 -1 x150 -1 x153 -1 x156 -1 x159 -1 x162 -1 x165 -1 x168 -1 x171 -1 x174 -1 x177 -1 x180 -1 x183 -1 x186 -1 x189 -1 x192 -1 x195 -1 x198 -1 x201 >= -10;
+1 x148 +1 x151 +1 x154 +1 x157 +1 x160 +1 x163 +1 x166 +1 x169 +1 x172 +1 x175 +1 x178 +1 x181 +1 x184 +1 x187 +1 x190 +1 x193 +1 x196 +1 x199 +1 x202 >= 9;
-1 x148 -1 x151 -1 x154 -1 x157 -1 x160 -1 x163 -1 x166 -1 x169 -1 x172 -1 x175 -1 x178 -1 x181 -1 x184 -1 x187 -1 x190 -1 x193 -1 x196 -1 x199 -1 x202 >= -10;
+1 x149 +1 x152 +1 x155 +1 x158 +1 x161 +1 x164 +1 x167 +1 x170 +1 x173 +1 x176 +1 x179 +1 x182 +1 x185 +1 x188 +1 x191 +1 x194 +1 x197 +1 x200 +1 x203 >= 9;
-1 x149 -1 x152 -1 x155 -1 x158 -1 x161 -1 x164 -1 x167 -1 x170 -1 x173 -1 x176 -1 x179 -1 x182 -1 x185 -1 x188 -1 x191 -1 x194 -1 x197 -1 x200 -1 x203 >= -10;
+1 x150 +1 x153 +1 x156 +1 x159 +1 x162 +1 x165 +1 x168 +1 x171 +1 x174 +1 x177 +1 x180 +1 x183 +1 x186 +1 x189 +1 x192 +1 x195 +1 x198 +1 x201 +1 x204 >= 9;
-1 x150 -1 x153 -1 x156 -1 x159 -1 x162 -1 x165 -1 x168 -1 x171 -1 x174 -1 x177 -1 x180 -1 x183 -1 x186 -1 x189 -1 x192 -1 x195 -1 x198 -1 x201 -1 x204 >= -10;
+1 x151 +1 x154 +1 x157 +1 x160 +1 x163 +1 x166 +1 x169 +1 x172 +1 x175 +1 x178 +1 x181 +1 x184 +1 x187 +1 x190 +1 x193 +1 x196 +1 x199 +1 x202 +1 x205 >= 9;
-1 x151 -1 x154 -1 x157 -1 x160 -1 x163 -1 x166 -1 x169 -1 x172 -1 x175 -1 x178 -1 x181 -1 x184 -1 x187 -1 x190 -1 x193 -1 x196 -1 x199 -1 x202 -1 x205 >= -10;
+1 x152 +1 x155 +1 x158 +1 x161 +1 x164 +1 x167 +1 x170 +1 x173 +1 x176 +1 x179 +1 x182 +1 x185 +1 x188 +1 x191 +1 x194 +1 x197 +1 x200 +1 x203 +1 x206 >= 9;
-1 x152 -1 x155 -1 x158 -1 x161 -1 x164 -1 x167 -1 x170 -1 x173 -1 x176 -1 x179 -1 x182 -1 x185 -1 x188 -1 x191 -1 x194 -1 x197 -1 x200 -1 x203 -1 x206 >= -10;
+1 x153 +1 x156 +1 x159 +1 x162 +1 x165 +1 x168 +1 x171 +1 x174 +1 x177 +1 x180 +1 x183 +1 x186 +1 x189 +1 x192 +1 x195 +1 x198 +1 x201 +1 x204 +1 x207 >= 9;
-1 x153 -1 x156 -1 x159 -1 x162 -1 x165 -1 x168 -1 x171 -1 x174 -1 x177 -1 x180 -1 x183 -1 x186 -1 x189 -1 x192 -1 x195 -1 x198 -1 x201 -1 x204 -1 x207 >= -10;
+1 x154 +1 x157 +1 x160 +1 x163 +1 x166 +1 x169 +1 x172 +1 x175 +1 x178 +1 x181 +1 x184 +1 x187 +1 x190 +1 x193 +1 x196 +1 x199 +1 x202 +1 x205 +1 x208 >= 9;
-1 x154 -1 x157 -1 x160 -1 x163 -1 x166 -1 x169 -1 x172 -1 x175 -1 x178 -1 x181 -1 x184 -1 x187 -1 x190 -1 x193 -1 x196 -1 x199 -1 x202 -1 x205 -1 x208 >= -10;
+1 x155 +1 x158 +1 x161 +1 x164 +1 x167 +1 x170 +1 x173 +1 x176 +1 x179 +1 x182 +1 x185 +1 x188 +1 x191 +1 x194 +1 x197 +1 x200 +1 x203 +1 x206 +1 x209 >= 9;
-1 x155 -1 x158 -1 x161 -1 x164 -1 x167 -1 x170 -1 x173 -1 x176 -1 x179 -1 x182 -1 x185 -1 x188 -1 x191 -1 x194 -1 x197 -1 x200 -1 x203 -1 x206 -1 x209 >= -10;
+1 x156 +1 x159 +1 x162 +1 x165 +1 x168 +1 x171 +1 x174 +1 x177 +1 x180 +1 x183 +1 x186 +1 x189 +1 x192 +1 x195 +1 x198 +1 x201 +1 x204 +1 x207 +1 x210 >= 9;
-1 x156 -1 x159 -1 x162 -1 x165 -1 x168 -1 x171 -1 x174 -1 x177 -1 x180 -1 x183 -1 x186 -1 x189 -1 x192 -1 x195 -1 x198 -1 x201 -1 x204 -1 x207 -1 x210 >= -10;
+1 x157 +1 x160 +1 x163 +1 x166 +1 x169 +1 x172 +1 x175 +1 x178 +1 x181 +1 x184 +1 x187 +1 x190 +1 x193 +1 x196 +1 x199 +1 x202 +1 x205 +1 x208 +1 x211 >= 9;
-1 x157 -1 x160 -1 x163 -1 x166 -1 x169 -1 x172 -1 x175 -1 x178 -1 x181 -1 x184 -1 x187 -1 x190 -1 x193 -1 x196 -1 x199 -1 x202 -1 x205 -1 x208 -1 x211 >= -10;
+1 x158 +1 x161 +1 x164 +1 x167 +1 x170 +1 x173 +1 x176 +1 x179 +1 x182 +1 x185 +1 x188 +1 x191 +1 x194 +1 x197 +1 x200 +1 x203 +1 x206 +1 x209 +1 x212 >= 9;
-1 x158 -1 x161 -1 x164 -1 x167 -1 x170 -1 x173 -1 x176 -1 x179 -1 x182 -1 x185 -1 x188 -1 x191 -1 x194 -1 x197 -1 x200 -1 x203 -1 x206 -1 x209 -1 x212 >= -10;
+1 x159 +1 x162 +1 x165 +1 x168 +1 x171 +1 x174 +1 x177 +1 x180 +1 x183 +1 x186 +1 x189 +1 x192 +1 x195 +1 x198 +1 x201 +1 x204 +1 x207 +1 x210 +1 x213 >= 9;
-1 x159 -1 x162 -1 x165 -1 x168 -1 x171 -1 x174 -1 x177 -1 x180 -1 x183 -1 x186 -1 x189 -1 x192 -1 x195 -1 x198 -1 x201 -1 x204 -1 x207 -1 x210 -1 x213 >= -10;
+1 x160 +1 x163 +1 x166 +1 x169 +1 x172 +1 x175 +1 x178 +1 x181 +1 x184 +1 x187 +1 x190 +1 x193 +1 x196 +1 x199 +1 x202 +1 x205 +1 x208 +1 x211 +1 x214 >= 9;
-1 x160 -1 x163 -1 x166 -1 x169 -1 x172 -1 x175 -1 x178 -1 x181 -1 x184 -1 x187 -1 x190 -1 x193 -1 x196 -1 x199 -1 x202 -1 x205 -1 x208 -1 x211 -1 x214 >= -10;
+1 x161 +1 x164 +1 x167 +1 x170 +1 x173 +1 x176 +1 x179 +1 x182 +1 x185 +1 x188 +1 x191 +1 x194 +1 x197 +1 x200 +1 x203 +1 x206 +1 x209 +1 x212 +1 x215 >= 9;
-1 x161 -1 x164 -1 x167 -1 x170 -1 x173 -1 x176 -1 x179 -1 x182 -1 x185 -1 x188 -1 x191 -1 x194 -1 x197 -1 x200 -1 x203 -1 x206 -1 x209 -1 x212 -1 x215 >= -10;
+1 x162 +1 x165 +1 x168 +1 x171 +1 x174 +1 x177 +1 x180 +1 x183 +1 x186 +1 x189 +1 x192 +1 x195 +1 x198 +1 x201 +1 x204 +1 x207 +1 x210 +1 x213 +1 x216 >= 9;
-1 x162 -1 x165 -1 x168 -1 x171 -1 x174 -1 x177 -1 x180 -1 x183 -1 x186 -1 x189 -1 x192 -1 x195 -1 x198 -1 x201 -1 x204 -1 x207 -1 x210 -1 x213 -1 x216 >= -10;
+1 x163 +1 x166 +1 x169 +1 x172 +1 x175 +1 x178 +1 x181 +1 x184 +1 x187 +1 x190 +1 x193 +1 x196 +1 x199 +1 x202 +1 x205 +1 x208 +1 x211 +1 x214 +1 x217 >= 9;
-1 x163 -1 x166 -1 x169 -1 x172 -1 x175 -1 x178 -1 x181 -1 x184 -1 x187 -1 x190 -1 x193 -1 x196 -1 x199 -1 x202 -1 x205 -1 x208 -1 x211 -1 x214 -1 x217 >= -10;
+1 x164 +1 x167 +1 x170 +1 x173 +1 x176 +1 x179 +1 x182 +1 x185 +1 x188 +1 x191 +1 x194 +1 x197 +1 x200 +1 x203 +1 x206 +1 x209 +1 x212 +1 x215 +1 x218 >= 9;
-1 x164 -1 x167 -1 x170 -1 x173 -1 x176 -1 x179 -1 x182 -1 x185 -1 x188 -1 x191 -1 x194 -1 x197 -1 x200 -1 x203 -1 x206 -1 x209 -1 x212 -1 x215 -1 x218 >= -10;
+1 x165 +1 x168 +1 x171 +1 x174 +1 x177 +1 x180 +1 x183 +1 x186 +1 x189 +1 x192 +1 x195 +1 x198 +1 x201 +1 x204 +1 x207 +1 x210 +1 x213 +1 x216 +1 x219 >= 9;
-1 x165 -1 x168 -1 x171 -1 x174 -1 x177 -1 x180 -1 x183 -1 x186 -1 x189 -1 x192 -1 x195 -1 x198 -1 x201 -1 x204 -1 x207 -1 x210 -1 x213 -1 x216 -1 x219 >= -10;
+1 x166 +1 x169 +1 x172 +1 x175 +1 x178 +1 x181 +1 x184 +1 x187 +1 x190 +1 x193 +1 x196 +1 x199 +1 x202 +1 x205 +1 x208 +1 x211 +1 x214 +1 x217 +1 x220 >= 9;
-1 x166 -1 x169 -1 x172 -1 x175 -1 x178 -1 x181 -1 x184 -1 x187 -1 x190 -1 x193 -1 x196 -1 x199 -1 x202 -1 x205 -1 x208 -1 x211 -1 x214 -1 x217 -1 x220 >= -10;
+1 x167 +1 x170 +1 x173 +1 x176 +1 x179 +1 x182 +1 x185 +1 x188 +1 x191 +1 x194 +1 x197 +1 x200 +1 x203 +1 x206 +1 x209 +1 x212 +1 x215 +1 x218 +1 x221 >= 9;
-1 x167 -1 x170 -1 x173 -1 x176 -1 x179 -1 x182 -1 x185 -1 x188 -1 x191 -1 x194 -1 x197 -1 x200 -1 x203 -1 x206 -1 x209 -1 x212 -1 x215 -1 x218 -1 x221 >= -10;
+1 x168 +1 x171 +1 x174 +1 x177 +1 x180 +1 x183 +1 x186 +1 x189 +1 x192 +1 x195 +1 x198 +1 x201 +1 x204 +1 x207 +1 x210 +1 x213 +1 x216 +1 x219 +1 x222 >= 9;
-1 x168 -1 x171 -1 x174 -1 x177 -1 x180 -1 x183 -1 x186 -1 x189 -1 x192 -1 x195 -1 x198 -1 x201 -1 x204 -1 x207 -1 x210 -1 x213 -1 x216 -1 x219 -1 x222 >= -10;
+1 x169 +1 x172 +1 x175 +1 x178 +1 x181 +1 x184 +1 x187 +1 x190 +1 x193 +1 x196 +1 x199 +1 x202 +1 x205 +1 x208 +1 x211 +1 x214 +1 x217 +1 x220 +1 x223 >= 9;
-1 x169 -1 x172 -1 x175 -1 x178 -1 x181 -1 x184 -1 x187 -1 x190 -1 x193 -1 x196 -1 x199 -1 x202 -1 x205 -1 x208 -1 x211 -1 x214 -1 x217 -1 x220 -1 x223 >= -10;
+1 x170 +1 x173 +1 x176 +1 x179 +1 x182 +1 x185 +1 x188 +1 x191 +1 x194 +1 x197 +1 x200 +1 x203 +1 x206 +1 x209 +1 x212 +1 x215 +1 x218 +1 x221 +1 x224 >= 9;
-1 x170 -1 x173 -1 x176 -1 x179 -1 x182 -1 x185 -1 x188 -1 x191 -1 x194 -1 x197 -1 x200 -1 x203 -1 x206 -1 x209 -1 x212 -1 x215 -1 x218 -1 x221 -1 x224 >= -10;
+1 x171 +1 x174 +1 x177 +1 x180 +1 x183 +1 x186 +1 x189 +1 x192 +1 x195 +1 x198 +1 x201 +1 x204 +1 x207 +1 x210 +1 x213 +1 x216 +1 x219 +1 x222 +1 x225 >= 9;
-1 x171 -1 x174 -1 x177 -1 x180 -1 x183 -1 x186 -1 x189 -1 x192 -1 x195 -1 x198 -1 x201 -1 x204 -1 x207 -1 x210 -1 x213 -1 x216 -1 x219 -1 x222 -1 x225 >= -10;
+1 x172 +1 x175 +1 x178 +1 x181 +1 x184 +1 x187 +1 x190 +1 x193 +1 x196 +1 x199 +1 x202 +1 x205 +1 x208 +1 x211 +1 x214 +1 x217 +1 x220 +1 x223 +1 x226 >= 9;
-1 x172 -1 x175 -1 x178 -1 x181 -1 x184 -1 x187 -1 x190 -1 x193 -1 x196 -1 x199 -1 x202 -1 x205 -1 x208 -1 x211 -1 x214 -1 x217 -1 x220 -1 x223 -1 x226 >= -10;
+1 x173 +1 x176 +1 x179 +1 x182 +1 x185 +1 x188 +1 x191 +1 x194 +1 x197 +1 x200 +1 x203 +1 x206 +1 x209 +1 x212 +1 x215 +1 x218 +1 x221 +1 x224 +1 x227 >= 9;
-1 x173 -1 x176 -1 x179 -1 x182 -1 x185 -1 x188 -1 x191 -1 x194 -1 x197 -1 x200 -1 x203 -1 x206 -1 x209 -1 x212 -1 x215 -1 x218 -1 x221 -1 x224 -1 x227 >= -10;
+1 x174 +1 x177 +1 x180 +1 x183 +1 x186 +1 x189 +1 x192 +1 x195 +1 x198 +1 x201 +1 x204 +1 x207 +1 x210 +1 x213 +1 x216 +1 x219 +1 x222 +1 x225 +1 x228 >= 9;
-1 x174 -1 x177 -1 x180 -1 x183 -1 x186 -1 x189 -1 x192 -1 x195 -1 x198 -1 x201 -1 x204 -1 x207 -1 x210 -1 x213 -1 x216 -1 x219 -1 x222 -1 x225 -1 x228 >= -10;
+1 x175 +1 x178 +1 x181 +1 x184 +1 x187 +1 x190 +1 x193 +1 x196 +1 x199 +1 x202 +1 x205 +1 x208 +1 x211 +1 x214 +1 x217 +1 x220 +1 x223 +1 x226 +1 x229 >= 9;
-1 x175 -1 x178 -1 x181 -1 x184 -1 x187 -1 x190 -1 x193 -1 x196 -1 x199 -1 x202 -1 x205 -1 x208 -1 x211 -1 x214 -1 x217 -1 x220 -1 x223 -1 x226 -1 x229 >= -10;
+1 x176 +1 x179 +1 x182 +1 x185 +1 x188 +1 x191 +1 x194 +1 x197 +1 x200 +1 x203 +1 x206 +1 x209 +1 x212 +1 x215 +1 x218 +1 x221 +1 x224 +1 x227 +1 x230 >= 9;
-1 x176 -1 x179 -1 x182 -1 x185 -1 x188 -1 x191 -1 x194 -1 x197 -1 x200 -1 x203 -1 x206 -1 x209 -1 x212 -1 x215 -1 x218 -1 x221 -1 x224 -1 x227 -1 x230 >= -10;
+1 x177 +1 x180 +1 x183 +1 x186 +1 x189 +1 x192 +1 x195 +1 x198 +1 x201 +1 x204 +1 x207 +1 x210 +1 x213 +1 x216 +1 x219 +1 x222 +1 x225 +1 x228 +1 x231 >= 9;
-1 x177 -1 x180 -1 x183 -1 x186 -1 x189 -1 x192 -1 x195 -1 x198 -1 x201 -1 x204 -1 x207 -1 x210 -1 x213 -1 x216 -1 x219 -1 x222 -1 x225 -1 x228 -1 x231 >= -10;
+1 x178 +1 x181 +1 x184 +1 x187 +1 x190 +1 x193 +1 x196 +1 x199 +1 x202 +1 x205 +1 x208 +1 x211 +1 x214 +1 x217 +1 x220 +1 x223 +1 x226 +1 x229 +1 x232 >= 9;
-1 x178 -1 x181 -1 x184 -1 x187 -1 x190 -1 x193 -1 x196 -1 x199 -1 x202 -1 x205 -1 x208 -1 x211 -1 x214 -1 x217 -1 x220 -1 x223 -1 x226 -1 x229 -1 x232 >= -10;
+1 x179 +1 x182 +1 x185 +1 x188 +1 x191 +1 x194 +1 x197 +1 x200 +1 x203 +1 x206 +1 x209 +1 x212 +1 x215 +1 x218 +1 x221 +1 x224 +1 x227 +1 x230 +1 x233 >= 9;
-1 x179 -1 x182 -1 x185 -1 x188 -1 x191 -1 x194 -1 x197 -1 x200 -1 x203 -1 x206 -1 x209 -1 x212 -1 x215 -1 x218 -1 x221 -1 x224 -1 x227 -1 x230 -1 x233 >= -10;
+1 x180 +1 x183 +1 x186 +1 x189 +1 x192 +1 x195 +1 x198 +1 x201 +1 x204 +1 x207 +1 x210 +1 x213 +1 x216 +1 x219 +1 x222 +1 x225 +1 x228 +1 x231 +1 x234 >= 9;
-1 x180 -1 x183 -1 x186 -1 x189 -1 x192 -1 x195 -1 x198 -1 x201 -1 x204 -1 x207 -1 x210 -1 x213 -1 x216 -1 x219 -1 x222 -1 x225 -1 x228 -1 x231 -1 x234 >= -10;
+1 x181 +1 x184 +1 x187 +1 x190 +1 x193 +1 x196 +1 x199 +1 x202 +1 x205 +1 x208 +1 x211 +1 x214 +1 x217 +1 x220 +1 x223 +1 x226 +1 x229 +1 x232 +1 x235 >= 9;
-1 x181 -1 x184 -1 x187 -1 x190 -1 x193 -1 x196 -1 x199 -1 x202 -1 x205 -1 x208 -1 x211 -1 x214 -1 x217 -1 x220 -1 x223 -1 x226 -1 x229 -1 x232 -1 x235 >= -10;
+1 x182 +1 x185 +1 x188 +1 x191 +1 x194 +1 x197 +1 x200 +1 x203 +1 x206 +1 x209 +1 x212 +1 x215 +1 x218 +1 x221 +1 x224 +1 x227 +1 x230 +1 x233 +1 x236 >= 9;
-1 x182 -1 x185 -1 x188 -1 x191 -1 x194 -1 x197 -1 x200 -1 x203 -1 x206 -1 x209 -1 x212 -1 x215 -1 x218 -1 x221 -1 x224 -1 x227 -1 x230 -1 x233 -1 x236 >= -10;
+1 x183 +1 x186 +1 x189 +1 x192 +1 x195 +1 x198 +1 x201 +1 x204 +1 x207 +1 x210 +1 x213 +1 x216 +1 x219 +1 x222 +1 x225 +1 x228 +1 x231 +1 x234 +1 x237 >= 9;
-1 x183 -1 x186 -1 x189 -1 x192 -1 x195 -1 x198 -1 x201 -1 x204 -1 x207 -1 x210 -1 x213 -1 x216 -1 x219 -1 x222 -1 x225 -1 x228 -1 x231 -1 x234 -1 x237 >= -10;
+1 x184 +1 x187 +1 x190 +1 x193 +1 x196 +1 x199 +1 x202 +1 x205 +1 x208 +1 x211 +1 x214 +1 x217 +1 x220 +1 x223 +1 x226 +1 x229 +1 x232 +1 x235 +1 x238 >= 9;
-1 x184 -1 x187 -1 x190 -1 x193 -1 x196 -1 x199 -1 x202 -1 x205 -1 x208 -1 x211 -1 x214 -1 x217 -1 x220 -1 x223 -1 x226 -1 x229 -1 x232 -1 x235 -1 x238 >= -10;
+1 x185 +1 x188 +1 x191 +1 x194 +1 x197 +1 x200 +1 x203 +1 x206 +1 x209 +1 x212 +1 x215 +1 x218 +1 x221 +1 x224 +1 x227 +1 x230 +1 x233 +1 x236 +1 x239 >= 9;
-1 x185 -1 x188 -1 x191 -1 x194 -1 x197 -1 x200 -1 x203 -1 x206 -1 x209 -1 x212 -1 x215 -1 x218 -1 x221 -1 x224 -1 x227 -1 x230 -1 x233 -1 x236 -1 x239 >= -10;
+1 x186 +1 x189 +1 x192 +1 x195 +1 x198 +1 x201 +1 x204 +1 x207 +1 x210 +1 x213 +1 x216 +1 x219 +1 x222 +1 x225 +1 x228 +1 x231 +1 x234 +1 x237 +1 x240 >= 9;
-1 x186 -1 x189 -1 x192 -1 x195 -1 x198 -1 x201 -1 x204 -1 x207 -1 x210 -1 x213 -1 x216 -1 x219 -1 x222 -1 x225 -1 x228 -1 x231 -1 x234 -1 x237 -1 x240 >= -10;
+1 x187 +1 x190 +1 x193 +1 x196 +1 x199 +1 x202 +1 x205 +1 x208 +1 x211 +1 x214 +1 x217 +1 x220 +1 x223 +1 x226 +1 x229 +1 x232 +1 x235 +1 x238 +1 x241 >= 9;
-1 x187 -1 x190 -1 x193 -1 x196 -1 x199 -1 x202 -1 x205 -1 x208 -1 x211 -1 x214 -1 x217 -1 x220 -1 x223 -1 x226 -1 x229 -1 x232 -1 x235 -1 x238 -1 x241 >= -10;
+1 x188 +1 x191 +1 x194 +1 x197 +1 x200 +1 x203 +1 x206 +1 x209 +1 x212 +1 x215 +1 x218 +1 x221 +1 x224 +1 x227 +1 x230 +1 x233 +1 x236 +1 x239 +1 x242 >= 9;
-1 x188 -1 x191 -1 x194 -1 x197 -1 x200 -1 x203 -1 x206 -1 x209 -1 x212 -1 x215 -1 x218 -1 x221 -1 x224 -1 x227 -1 x230 -1 x233 -1 x236 -1 x239 -1 x242 >= -10;
+1 x189 +1 x192 +1 x195 +1 x198 +1 x201 +1 x204 +1 x207 +1 x210 +1 x213 +1 x216 +1 x219 +1 x222 +1 x225 +1 x228 +1 x231 +1 x234 +1 x237 +1 x240 +1 x243 >= 9;
-1 x189 -1 x192 -1 x195 -1 x198 -1 x201 -1 x204 -1 x207 -1 x210 -1 x213 -1 x216 -1 x219 -1 x222 -1 x225 -1 x228 -1 x231 -1 x234 -1 x237 -1 x240 -1 x243 >= -10;
+1 x190 +1 x193 +1 x196 +1 x199 +1 x202 +1 x205 +1 x208 +1 x211 +1 x214 +1 x217 +1 x220 +1 x223 +1 x226 +1 x229 +1 x232 +1 x235 +1 x238 +1 x241 +1 x244 >= 9;
-1 x190 -1 x193 -1 x196 -1 x199 -1 x202 -1 x205 -1 x208 -1 x211 -1 x214 -1 x217 -1 x220 -1 x223 -1 x226 -1 x229 -1 x232 -1 x235 -1 x238 -1 x241 -1 x244 >= -10;
+1 x191 +1 x194 +1 x197 +1 x200 +1 x203 +1 x206 +1 x209 +1 x212 +1 x215 +1 x218 +1 x221 +1 x224 +1 x227 +1 x230 +1 x233 +1 x236 +1 x239 +1 x242 +1 x245 >= 9;
-1 x191 -1 x194 -1 x197 -1 x200 -1 x203 -1 x206 -1 x209 -1 x212 -1 x215 -1 x218 -1 x221 -1 x224 -1 x227 -1 x230 -1 x233 -1 x236 -1 x239 -1 x242 -1 x245 >= -10;
+1 x192 +1 x195 +1 x198 +1 x201 +1 x204 +1 x207 +1 x210 +1 x213 +1 x216 +1 x219 +1 x222 +1 x225 +1 x228 +1 x231 +1 x234 +1 x237 +1 x240 +1 x243 +1 x246 >= 9;
-1 x192 -1 x195 -1 x198 -1 x201 -1 x204 -1 x207 -1 x210 -1 x213 -1 x216 -1 x219 -1 x222 -1 x225 -1 x228 -1 x231 -1 x234 -1 x237 -1 x240 -1 x243 -1 x246 >= -10;
+1 x193 +1 x196 +1 x199 +1 x202 +1 x205 +1 x208 +1 x211 +1 x214 +1 x217 +1 x220 +1 x223 +1 x226 +1 x229 +1 x232 +1 x235 +1 x238 +1 x241 +1 x244 +1 x247 >= 9;
-1 x193 -1 x196 -1 x199 -1 x202 -1 x205 -1 x208 -1 x211 -1 x214 -1 x217 -1 x220 -1 x223 -1 x226 -1 x229 -1 x232 -1 x235 -1 x238 -1 x241 -1 x244 -1 x247 >= -10;
+1 x194 +1 x197 +1 x200 +1 x203 +1 x206 +1 x209 +1 x212 +1 x215 +1 x218 +1 x221 +1 x224 +1 x227 +1 x230 +1 x233 +1 x236 +1 x239 +1 x242 +1 x245 +1 x248 >= 9;
-1 x194 -1 x197 -1 x200 -1 x203 -1 x206 -1 x209 -1 x212 -1 x215 -1 x218 -1 x221 -1 x224 -1 x227 -1 x230 -1 x233 -1 x236 -1 x239 -1 x242 -1 x245 -1 x248 >= -10;
+1 x195 +1 x198 +1 x201 +1 x204 +1 x207 +1 x210 +1 x213 +1 x216 +1 x219 +1 x222 +1 x225 +1 x228 +1 x231 +1 x234 +1 x237 +1 x240 +1 x243 +1 x246 +1 x249 >= 9;
-1 x195 -1 x198 -1 x201 -1 x204 -1 x207 -1 x210 -1 x213 -1 x216 -1 x219 -1 x222 -1 x225 -1 x228 -1 x231 -1 x234 -1 x237 -1 x240 -1 x243 -1 x246 -1 x249 >= -10;
+1 x196 +1 x199 +1 x202 +1 x205 +1 x208 +1 x211 +1 x214 +1 x217 +1 x220 +1 x223 +1 x226 +1 x229 +1 x232 +1 x235 +1 x238 +1 x241 +1 x244 +1 x247 +1 x250 >= 9;
-1 x196 -1 x199 -1 x202 -1 x205 -1 x208 -1 x211 -1 x214 -1 x217 -1 x220 -1 x223 -1 x226 -1 x229 -1 x232 -1 x235 -1 x238 -1 x241 -1 x244 -1 x247 -1 x250 >= -10;
+1 x197 +1 x200 +1 x203 +1 x206 +1 x209 +1 x212 +1 x215 +1 x218 +1 x221 +1 x224 +1 x227 +1 x230 +1 x233 +1 x236 +1 x239 +1 x242 +1 x245 +1 x248 +1 x251 >= 9;
-1 x197 -1 x200 -1 x203 -1 x206 -1 x209 -1 x212 -1 x215 -1 x218 -1 x221 -1 x224 -1 x227 -1 x230 -1 x233 -1 x236 -1 x239 -1 x242 -1 x245 -1 x248 -1 x251 >= -10;
+1 x198 +1 x201 +1 x204 +1 x207 +1 x210 +1 x213 +1 x216 +1 x219 +1 x222 +1 x225 +1 x228 +1 x231 +1 x234 +1 x237 +1 x240 +1 x243 +1 x246 +1 x249 +1 x252 >= 9;
-1 x198 -1 x201 -1 x204 -1 x207 -1 x210 -1 x213 -1 x216 -1 x219 -1 x222 -1 x225 -1 x228 -1 x231 -1 x234 -1 x237 -1 x240 -1 x243 -1 x246 -1 x249 -1 x252 >= -10;
+1 x199 +1 x202 +1 x205 +1 x208 +1 x211 +1 x214 +1 x217 +1 x220 +1 x223 +1 x226 +1 x229 +1 x232 +1 x235 +1 x238 +1 x241 +1 x244 +1 x247 +1 x250 +1 x253 >= 9;
-1 x199 -1 x202 -1 x205 -1 x208 -1 x211 -1 x214 -1 x217 -1 x220 -1 x223 -1 x226 -1 x229 -1 x232 -1 x235 -1 x238 -1 x241 -1 x244 -1 x247 -1 x250 -1 x253 >= -10;
+1 x200 +1 x203 +1 x206 +1 x209 +1 x212 +1 x215 +1 x218 +1 x221 +1 x224 +1 x227 +1 x230 +1 x233 +1 x236 +1 x239 +1 x242 +1 x245 +1 x248 +1 x251 +1 x254 >= 9;
-1 x200 -1 x203 -1 x206 -1 x209 -1 x212 -1 x215 -1 x218 -1 x221 -1 x224 -1 x227 -1 x230 -1 x233 -1 x236 -1 x239 -1 x242 -1 x245 -1 x248 -1 x251 -1 x254 >= -10;
+1 x201 +1 x204 +1 x207 +1 x210 +1 x213 +1 x216 +1 x219 +1 x222 +1 x225 +1 x228 +1 x231 +1 x234 +1 x237 +1 x240 +1 x243 +1 x246 +1 x249 +1 x252 +1 x255 >= 9;
-1 x201 -1 x204 -1 x207 -1 x210 -1 x213 -1 x216 -1 x219 -1 x222 -1 x225 -1 x228 -1 x231 -1 x234 -1 x237 -1 x240 -1 x243 -1 x246 -1 x249 -1 x252 -1 x255 >= -10;
+1 x202 +1 x205 +1 x208 +1 x211 +1 x214 +1 x217 +1 x220 +1 x223 +1 x226 +1 x229 +1 x232 +1 x235 +1 x238 +1 x241 +1 x244 +1 x247 +1 x250 +1 x253 +1 x256 >= 9;
-1 x202 -1 x205 -1 x208 -1 x211 -1 x214 -1 x217 -1 x220 -1 x223 -1 x226 -1 x229 -1 x232 -1 x235 -1 x238 -1 x241 -1 x244 -1 x247 -1 x250 -1 x253 -1 x256 >= -10;
+1 x203 +1 x206 +1 x209 +1 x212 +1 x215 +1 x218 +1 x221 +1 x224 +1 x227 +1 x230 +1 x233 +1 x236 +1 x239 +1 x242 +1 x245 +1 x248 +1 x251 +1 x254 +1 x257 >= 9;
-1 x203 -1 x206 -1 x209 -1 x212 -1 x215 -1 x218 -1 x221 -1 x224 -1 x227 -1 x230 -1 x233 -1 x236 -1 x239 -1 x242 -1 x245 -1 x248 -1 x251 -1 x254 -1 x257 >= -10;
+1 x204 +1 x207 +1 x210 +1 x213 +1 x216 +1 x219 +1 x222 +1 x225 +1 x228 +1 x231 +1 x234 +1 x237 +1 x240 +1 x243 +1 x246 +1 x249 +1 x252 +1 x255 +1 x258 >= 9;
-1 x204 -1 x207 -1 x210 -1 x213 -1 x216 -1 x219 -1 x222 -1 x225 -1 x228 -1 x231 -1 x234 -1 x237 -1 x240 -1 x243 -1 x246 -1 x249 -1 x252 -1 x255 -1 x258 >= -10;
+1 x205 +1 x208 +1 x211 +1 x214 +1 x217 +1 x220 +1 x223 +1 x226 +1 x229 +1 x232 +1 x235 +1 x238 +1 x241 +1 x244 +1 x247 +1 x250 +1 x253 +1 x256 +1 x259 >= 9;
-1 x205 -1 x208 -1 x211 -1 x214 -1 x217 -1 x220 -1 x223 -1 x226 -1 x229 -1 x232 -1 x235 -1 x238 -1 x241 -1 x244 -1 x247 -1 x250 -1 x253 -1 x256 -1 x259 >= -10;
+1 x206 +1 x209 +1 x212 +1 x215 +1 x218 +1 x221 +1 x224 +1 x227 +1 x230 +1 x233 +1 x236 +1 x239 +1 x242 +1 x245 +1 x248 +1 x251 +1 x254 +1 x257 +1 x260 >= 9;
-1 x206 -1 x209 -1 x212 -1 x215 -1 x218 -1 x221 -1 x224 -1 x227 -1 x230 -1 x233 -1 x236 -1 x239 -1 x242 -1 x245 -1 x248 -1 x251 -1 x254 -1 x257 -1 x260 >= -10;
+1 x207 +1 x210 +1 x213 +1 x216 +1 x219 +1 x222 +1 x225 +1 x228 +1 x231 +1 x234 +1 x237 +1 x240 +1 x243 +1 x246 +1 x249 +1 x252 +1 x255 +1 x258 +1 x261 >= 9;
-1 x207 -1 x210 -1 x213 -1 x216 -1 x219 -1 x222 -1 x225 -1 x228 -1 x231 -1 x234 -1 x237 -1 x240 -1 x243 -1 x246 -1 x249 -1 x252 -1 x255 -1 x258 -1 x261 >= -10;
+1 x208 +1 x211 +1 x214 +1 x217 +1 x220 +1 x223 +1 x226 +1 x229 +1 x232 +1 x235 +1 x238 +1 x241 +1 x244 +1 x247 +1 x250 +1 x253 +1 x256 +1 x259 +1 x262 >= 9;
-1 x208 -1 x211 -1 x214 -1 x217 -1 x220 -1 x223 -1 x226 -1 x229 -1 x232 -1 x235 -1 x238 -1 x241 -1 x244 -1 x247 -1 x250 -1 x253 -1 x256 -1 x259 -1 x262 >= -10;
+1 x209 +1 x212 +1 x215 +1 x218 +1 x221 +1 x224 +1 x227 +1 x230 +1 x233 +1 x236 +1 x239 +1 x242 +1 x245 +1 x248 +1 x251 +1 x254 +1 x257 +1 x260 +1 x263 >= 9;
-1 x209 -1 x212 -1 x215 -1 x218 -1 x221 -1 x224 -1 x227 -1 x230 -1 x233 -1 x236 -1 x239 -1 x242 -1 x245 -1 x248 -1 x251 -1 x254 -1 x257 -1 x260 -1 x263 >= -10;
+1 x210 +1 x213 +1 x216 +1 x219 +1 x222 +1 x225 +1 x228 +1 x231 +1 x234 +1 x237 +1 x240 +1 x243 +1 x246 +1 x249 +1 x252 +1 x255 +1 x258 +1 x261 +1 x264 >= 9;
-1 x210 -1 x213 -1 x216 -1 x219 -1 x222 -1 x225 -1 x228 -1 x231 -1 x234 -1 x237 -1 x240 -1 x243 -1 x246 -1 x249 -1 x252 -1 x255 -1 x258 -1 x261 -1 x264 >= -10;
+1 x211 +1 x214 +1 x217 +1 x220 +1 x223 +1 x226 +1 x229 +1 x232 +1 x235 +1 x238 +1 x241 +1 x244 +1 x247 +1 x250 +1 x253 +1 x256 +1 x259 +1 x262 +1 x265 >= 9;
-1 x211 -1 x214 -1 x217 -1 x220 -1 x223 -1 x226 -1 x229 -1 x232 -1 x235 -1 x238 -1 x241 -1 x244 -1 x247 -1 x250 -1 x253 -1 x256 -1 x259 -1 x262 -1 x265 >= -10;
+1 x212 +1 x215 +1 x218 +1 x221 +1 x224 +1 x227 +1 x230 +1 x233 +1 x236 +1 x239 +1 x242 +1 x245 +1 x248 +1 x251 +1 x254 +1 x257 +1 x260 +1 x263 +1 x266 >= 9;
-1 x212 -1 x215 -1 x218 -1 x221 -1 x224 -1 x227 -1 x230 -1 x233 -1 x236 -1 x239 -1 x242 -1 x245 -1 x248 -1 x251 -1 x254 -1 x257 -1 x260 -1 x263 -1 x266 >= -10;
+1 x213 +1 x216 +1 x219 +1 x222 +1 x225 +1 x228 +1 x231 +1 x234 +1 x237 +1 x240 +1 x243 +1 x246 +1 x249 +1 x252 +1 x255 +1 x258 +1 x261 +1 x264 +1 x267 >= 9;
-1 x213 -1 x216 -1 x219 -1 x222 -1 x225 -1 x228 -1 x231 -1 x234 -1 x237 -1 x240 -1 x243 -1 x246 -1 x249 -1 x252 -1 x255 -1 x258 -1 x261 -1 x264 -1 x267 >= -10;
+1 x214 +1 x217 +1 x220 +1 x223 +1 x226 +1 x229 +1 x232 +1 x235 +1 x238 +1 x241 +1 x244 +1 x247 +1 x250 +1 x253 +1 x256 +1 x259 +1 x262 +1 x265 +1 x268 >= 9;
-1 x214 -1 x217 -1 x220 -1 x223 -1 x226 -1 x229 -1 x232 -1 x235 -1 x238 -1 x241 -1 x244 -1 x247 -1 x250 -1 x253 -1 x256 -1 x259 -1 x262 -1 x265 -1 x268 >= -10;
+1 x215 +1 x218 +1 x221 +1 x224 +1 x227 +1 x230 +1 x233 +1 x236 +1 x239 +1 x242 +1 x245 +1 x248 +1 x251 +1 x254 +1 x257 +1 x260 +1 x263 +1 x266 +1 x269 >= 9;
-1 x215 -1 x218 -1 x221 -1 x224 -1 x227 -1 x230 -1 x233 -1 x236 -1 x239 -1 x242 -1 x245 -1 x248 -1 x251 -1 x254 -1 x257 -1 x260 -1 x263 -1 x266 -1 x269 >= -10;
+1 x216 +1 x219 +1 x222 +1 x225 +1 x228 +1 x231 +1 x234 +1 x237 +1 x240 +1 x243 +1 x246 +1 x249 +1 x252 +1 x255 +1 x258 +1 x261 +1 x264 +1 x267 +1 x270 >= 9;
-1 x216 -1 x219 -1 x222 -1 x225 -1 x228 -1 x231 -1 x234 -1 x237 -1 x240 -1 x243 -1 x246 -1 x249 -1 x252 -1 x255 -1 x258 -1 x261 -1 x264 -1 x267 -1 x270 >= -10;
+1 x217 +1 x220 +1 x223 +1 x226 +1 x229 +1 x232 +1 x235 +1 x238 +1 x241 +1 x244 +1 x247 +1 x250 +1 x253 +1 x256 +1 x259 +1 x262 +1 x265 +1 x268 +1 x271 >= 9;
-1 x217 -1 x220 -1 x223 -1 x226 -1 x229 -1 x232 -1 x235 -1 x238 -1 x241 -1 x244 -1 x247 -1 x250 -1 x253 -1 x256 -1 x259 -1 x262 -1 x265 -1 x268 -1 x271 >= -10;
+1 x218 +1 x221 +1 x224 +1 x227 +1 x230 +1 x233 +1 x236 +1 x239 +1 x242 +1 x245 +1 x248 +1 x251 +1 x254 +1 x257 +1 x260 +1 x263 +1 x266 +1 x269 +1 x272 >= 9;
-1 x218 -1 x221 -1 x224 -1 x227 -1 x230 -1 x233 -1 x236 -1 x239 -1 x242 -1 x245 -1 x248 -1 x251 -1 x254 -1 x257 -1 x260 -1 x263 -1 x266 -1 x269 -1 x272 >= -10;
+1 x219 +1 x222 +1 x225 +1 x228 +1 x231 +1 x234 +1 x237 +1 x240 +1 x243 +1 x246 +1 x249 +1 x252 +1 x255 +1 x258 +1 x261 +1 x264 +1 x267 +1 x270 +1 x273 >= 9;
-1 x219 -1 x222 -1 x225 -1 x228 -1 x231 -1 x234 -1 x237 -1 x240 -1 x243 -1 x246 -1 x249 -1 x252 -1 x255 -1 x258 -1 x261 -1 x264 -1 x267 -1 x270 -1 x273 >= -10;
+1 x220 +1 x223 +1 x226 +1 x229 +1 x232 +1 x235 +1 x238 +1 x241 +1 x244 +1 x247 +1 x250 +1 x253 +1 x256 +1 x259 +1 x262 +1 x265 +1 x268 +1 x271 +1 x274 >= 9;
-1 x220 -1 x223 -1 x226 -1 x229 -1 x232 -1 x235 -1 x238 -1 x241 -1 x244 -1 x247 -1 x250 -1 x253 -1 x256 -1 x259 -1 x262 -1 x265 -1 x268 -1 x271 -1 x274 >= -10;
+1 x221 +1 x224 +1 x227 +1 x230 +1 x233 +1 x236 +1 x239 +1 x242 +1 x245 +1 x248 +1 x251 +1 x254 +1 x257 +1 x260 +1 x263 +1 x266 +1 x269 +1 x272 +1 x275 >= 9;
-1 x221 -1 x224 -1 x227 -1 x230 -1 x233 -1 x236 -1 x239 -1 x242 -1 x245 -1 x248 -1 x251 -1 x254 -1 x257 -1 x260 -1 x263 -1 x266 -1 x269 -1 x272 -1 x275 >= -10;
+1 x222 +1 x225 +1 x228 +1 x231 +1 x234 +1 x237 +1 x240 +1 x243 +1 x246 +1 x249 +1 x252 +1 x255 +1 x258 +1 x261 +1 x264 +1 x267 +1 x270 +1 x273 +1 x276 >= 9;
-1 x222 -1 x225 -1 x228 -1 x231 -1 x234 -1 x237 -1 x240 -1 x243 -1 x246 -1 x249 -1 x252 -1 x255 -1 x258 -1 x261 -1 x264 -1 x267 -1 x270 -1 x273 -1 x276 >= -10;
+1 x223 +1 x226 +1 x229 +1 x232 +1 x235 +1 x238 +1 x241 +1 x244 +1 x247 +1 x250 +1 x253 +1 x256 +1 x259 +1 x262 +1 x265 +1 x268 +1 x271 +1 x274 +1 x277 >= 9;
-1 x223 -1 x226 -1 x229 -1 x232 -1 x235 -1 x238 -1 x241 -1 x244 -1 x247 -1 x250 -1 x253 -1 x256 -1 x259 -1 x262 -1 x265 -1 x268 -1 x271 -1 x274 -1 x277 >= -10;
+1 x224 +1 x227 +1 x230 +1 x233 +1 x236 +1 x239 +1 x242 +1 x245 +1 x248 +1 x251 +1 x254 +1 x257 +1 x260 +1 x263 +1 x266 +1 x269 +1 x272 +1 x275 +1 x278 >= 9;
-1 x224 -1 x227 -1 x230 -1 x233 -1 x236 -1 x239 -1 x242 -1 x245 -1 x248 -1 x251 -1 x254 -1 x257 -1 x260 -1 x263 -1 x266 -1 x269 -1 x272 -1 x275 -1 x278 >= -10;
+1 x225 +1 x228 +1 x231 +1 x234 +1 x237 +1 x240 +1 x243 +1 x246 +1 x249 +1 x252 +1 x255 +1 x258 +1 x261 +1 x264 +1 x267 +1 x270 +1 x273 +1 x276 +1 x279 >= 9;
-1 x225 -1 x228 -1 x231 -1 x234 -1 x237 -1 x240 -1 x243 -1 x246 -1 x249 -1 x252 -1 x255 -1 x258 -1 x261 -1 x264 -1 x267 -1 x270 -1 x273 -1 x276 -1 x279 >= -10;
+1 x226 +1 x229 +1 x232 +1 x235 +1 x238 +1 x241 +1 x244 +1 x247 +1 x250 +1 x253 +1 x256 +1 x259 +1 x262 +1 x265 +1 x268 +1 x271 +1 x274 +1 x277 +1 x280 >= 9;
-1 x226 -1 x229 -1 x232 -1 x235 -1 x238 -1 x241 -1 x244 -1 x247 -1 x250 -1 x253 -1 x256 -1 x259 -1 x262 -1 x265 -1 x268 -1 x271 -1 x274 -1 x277 -1 x280 >= -10;
+1 x227 +1 x230 +1 x233 +1 x236 +1 x239 +1 x242 +1 x245 +1 x248 +1 x251 +1 x254 +1 x257 +1 x260 +1 x263 +1 x266 +1 x269 +1 x272 +1 x275 +1 x278 +1 x281 >= 9;
-1 x227 -1 x230 -1 x233 -1 x236 -1 x239 -1 x242 -1 x245 -1 x248 -1 x251 -1 x254 -1 x257 -1 x260 -1 x263 -1 x266 -1 x269 -1 x272 -1 x275 -1 x278 -1 x281 >= -10;
+1 x228 +1 x231 +1 x234 +1 x237 +1 x240 +1 x243 +1 x246 +1 x249 +1 x252 +1 x255 +1 x258 +1 x261 +1 x264 +1 x267 +1 x270 +1 x273 +1 x276 +1 x279 +1 x282 >= 9;
-1 x228 -1 x231 -1 x234 -1 x237 -1 x240 -1 x243 -1 x246 -1 x249 -1 x252 -1 x255 -1 x258 -1 x261 -1 x264 -1 x267 -1 x270 -1 x273 -1 x276 -1 x279 -1 x282 >= -10;
+1 x229 +1 x232 +1 x235 +1 x238 +1 x241 +1 x244 +1 x247 +1 x250 +1 x253 +1 x256 +1 x259 +1 x262 +1 x265 +1 x268 +1 x271 +1 x274 +1 x277 +1 x280 +1 x283 >= 9;
-1 x229 -1 x232 -1 x235 -1 x238 -1 x241 -1 x244 -1 x247 -1 x250 -1 x253 -1 x256 -1 x259 -1 x262 -1 x265 -1 x268 -1 x271 -1 x274 -1 x277 -1 x280 -1 x283 >= -10;
+1 x230 +1 x233 +1 x236 +1 x239 +1 x242 +1 x245 +1 x248 +1 x251 +1 x254 +1 x257 +1 x260 +1 x263 +1 x266 +1 x269 +1 x272 +1 x275 +1 x278 +1 x281 +1 x284 >= 9;
-1 x230 -1 x233 -1 x236 -1 x239 -1 x242 -1 x245 -1 x248 -1 x251 -1 x254 -1 x257 -1 x260 -1 x263 -1 x266 -1 x269 -1 x272 -1 x275 -1 x278 -1 x281 -1 x284 >= -10;
+1 x231 +1 x234 +1 x237 +1 x240 +1 x243 +1 x246 +1 x249 +1 x252 +1 x255 +1 x258 +1 x261 +1 x264 +1 x267 +1 x270 +1 x273 +1 x276 +1 x279 +1 x282 +1 x285 >= 9;
-1 x231 -1 x234 -1 x237 -1 x240 -1 x243 -1 x246 -1 x249 -1 x252 -1 x255 -1 x258 -1 x261 -1 x264 -1 x267 -1 x270 -1 x273 -1 x276 -1 x279 -1 x282 -1 x285 >= -10;
+1 x232 +1 x235 +1 x238 +1 x241 +1 x244 +1 x247 +1 x250 +1 x253 +1 x256 +1 x259 +1 x262 +1 x265 +1 x268 +1 x271 +1 x274 +1 x277 +1 x280 +1 x283 +1 x286 >= 9;
-1 x232 -1 x235 -1 x238 -1 x241 -1 x244 -1 x247 -1 x250 -1 x253 -1 x256 -1 x259 -1 x262 -1 x265 -1 x268 -1 x271 -1 x274 -1 x277 -1 x280 -1 x283 -1 x286 >= -10;
+1 x233 +1 x236 +1 x239 +1 x242 +1 x245 +1 x248 +1 x251 +1 x254 +1 x257 +1 x260 +1 x263 +1 x266 +1 x269 +1 x272 +1 x275 +1 x278 +1 x281 +1 x284 +1 x287 >= 9;
-1 x233 -1 x236 -1 x239 -1 x242 -1 x245 -1 x248 -1 x251 -1 x254 -1 x257 -1 x260 -1 x263 -1 x266 -1 x269 -1 x272 -1 x275 -1 x278 -1 x281 -1 x284 -1 x287 >= -10;
+1 x234 +1 x237 +1 x240 +1 x243 +1 x246 +1 x249 +1 x252 +1 x255 +1 x258 +1 x261 +1 x264 +1 x267 +1 x270 +1 x273 +1 x276 +1 x279 +1 x282 +1 x285 +1 x288 >= 9;
-1 x234 -1 x237 -1 x240 -1 x243 -1 x246 -1 x249 -1 x252 -1 x255 -1 x258 -1 x261 -1 x264 -1 x267 -1 x270 -1 x273 -1 x276 -1 x279 -1 x282 -1 x285 -1 x288 >= -10;
+1 x235 +1 x238 +1 x241 +1 x244 +1 x247 +1 x250 +1 x253 +1 x256 +1 x259 +1 x262 +1 x265 +1 x268 +1 x271 +1 x274 +1 x277 +1 x280 +1 x283 +1 x286 +1 x289 >= 9;
-1 x235 -1 x238 -1 x241 -1 x244 -1 x247 -1 x250 -1 x253 -1 x256 -1 x259 -1 x262 -1 x265 -1 x268 -1 x271 -1 x274 -1 x277 -1 x280 -1 x283 -1 x286 -1 x289 >= -10;
+1 x236 +1 x239 +1 x242 +1 x245 +1 x248 +1 x251 +1 x254 +1 x257 +1 x260 +1 x263 +1 x266 +1 x269 +1 x272 +1 x275 +1 x278 +1 x281 +1 x284 +1 x287 +1 x290 >= 9;
-1 x236 -1 x239 -1 x242 -1 x245 -1 x248 -1 x251 -1 x254 -1 x257 -1 x260 -1 x263 -1 x266 -1 x269 -1 x272 -1 x275 -1 x278 -1 x281 -1 x284 -1 x287 -1 x290 >= -10;
+1 x237 +1 x240 +1 x243 +1 x246 +1 x249 +1 x252 +1 x255 +1 x258 +1 x261 +1 x264 +1 x267 +1 x270 +1 x273 +1 x276 +1 x279 +1 x282 +1 x285 +1 x288 +1 x291 >= 9;
-1 x237 -1 x240 -1 x243 -1 x246 -1 x249 -1 x252 -1 x255 -1 x258 -1 x261 -1 x264 -1 x267 -1 x270 -1 x273 -1 x276 -1 x279 -1 x282 -1 x285 -1 x288 -1 x291 >= -10;
+1 x238 +1 x241 +1 x244 +1 x247 +1 x250 +1 x253 +1 x256 +1 x259 +1 x262 +1 x265 +1 x268 +1 x271 +1 x274 +1 x277 +1 x280 +1 x283 +1 x286 +1 x289 +1 x292 >= 9;
-1 x238 -1 x241 -1 x244 -1 x247 -1 x250 -1 x253 -1 x256 -1 x259 -1 x262 -1 x265 -1 x268 -1 x271 -1 x274 -1 x277 -1 x280 -1 x283 -1 x286 -1 x289 -1 x292 >= -10;
+1 x239 +1 x242 +1 x245 +1 x248 +1 x251 +1 x254 +1 x257 +1 x260 +1 x263 +1 x266 +1 x269 +1 x272 +1 x275 +1 x278 +1 x281 +1 x284 +1 x287 +1 x290 +1 x293 >= 9;
-1 x239 -1 x242 -1 x245 -1 x248 -1 x251 -1 x254 -1 x257 -1 x260 -1 x263 -1 x266 -1 x269 -1 x272 -1 x275 -1 x278 -1 x281 -1 x284 -1 x287 -1 x290 -1 x293 >= -10;
+1 x240 +1 x243 +1 x246 +1 x249 +1 x252 +1 x255 +1 x258 +1 x261 +1 x264 +1 x267 +1 x270 +1 x273 +1 x276 +1 x279 +1 x282 +1 x285 +1 x288 +1 x291 +1 x294 >= 9;
-1 x240 -1 x243 -1 x246 -1 x249 -1 x252 -1 x255 -1 x258 -1 x261 -1 x264 -1 x267 -1 x270 -1 x273 -1 x276 -1 x279 -1 x282 -1 x285 -1 x288 -1 x291 -1 x294 >= -10;
+1 x241 +1 x244 +1 x247 +1 x250 +1 x253 +1 x256 +1 x259 +1 x262 +1 x265 +1 x268 +1 x271 +1 x274 +1 x277 +1 x280 +1 x283 +1 x286 +1 x289 +1 x292 +1 x295 >= 9;
-1 x241 -1 x244 -1 x247 -1 x250 -1 x253 -1 x256 -1 x259 -1 x262 -1 x265 -1 x268 -1 x271 -1 x274 -1 x277 -1 x280 -1 x283 -1 x286 -1 x289 -1 x292 -1 x295 >= -10;
+1 x242 +1 x245 +1 x248 +1 x251 +1 x254 +1 x257 +1 x260 +1 x263 +1 x266 +1 x269 +1 x272 +1 x275 +1 x278 +1 x281 +1 x284 +1 x287 +1 x290 +1 x293 +1 x296 >= 9;
-1 x242 -1 x245 -1 x248 -1 x251 -1 x254 -1 x257 -1 x260 -1 x263 -1 x266 -1 x269 -1 x272 -1 x275 -1 x278 -1 x281 -1 x284 -1 x287 -1 x290 -1 x293 -1 x296 >= -10;
+1 x243 +1 x246 +1 x249 +1 x252 +1 x255 +1 x258 +1 x261 +1 x264 +1 x267 +1 x270 +1 x273 +1 x276 +1 x279 +1 x282 +1 x285 +1 x288 +1 x291 +1 x294 +1 x297 >= 9;
-1 x243 -1 x246 -1 x249 -1 x252 -1 x255 -1 x258 -1 x261 -1 x264 -1 x267 -1 x270 -1 x273 -1 x276 -1 x279 -1 x282 -1 x285 -1 x288 -1 x291 -1 x294 -1 x297 >= -10;
+1 x244 +1 x247 +1 x250 +1 x253 +1 x256 +1 x259 +1 x262 +1 x265 +1 x268 +1 x271 +1 x274 +1 x277 +1 x280 +1 x283 +1 x286 +1 x289 +1 x292 +1 x295 +1 x298 >= 9;
-1 x244 -1 x247 -1 x250 -1 x253 -1 x256 -1 x259 -1 x262 -1 x265 -1 x268 -1 x271 -1 x274 -1 x277 -1 x280 -1 x283 -1 x286 -1 x289 -1 x292 -1 x295 -1 x298 >= -10;
+1 x245 +1 x248 +1 x251 +1 x254 +1 x257 +1 x260 +1 x263 +1 x266 +1 x269 +1 x272 +1 x275 +1 x278 +1 x281 +1 x284 +1 x287 +1 x290 +1 x293 +1 x296 +1 x299 >= 9;
-1 x245 -1 x248 -1 x251 -1 x254 -1 x257 -1 x260 -1 x263 -1 x266 -1 x269 -1 x272 -1 x275 -1 x278 -1 x281 -1 x284 -1 x287 -1 x290 -1 x293 -1 x296 -1 x299 >= -10;
+1 x246 +1 x249 +1 x252 +1 x255 +1 x258 +1 x261 +1 x264 +1 x267 +1 x270 +1 x273 +1 x276 +1 x279 +1 x282 +1 x285 +1 x288 +1 x291 +1 x294 +1 x297 +1 x300 >= 9;
-1 x246 -1 x249 -1 x252 -1 x255 -1 x258 -1 x261 -1 x264 -1 x267 -1 x270 -1 x273 -1 x276 -1 x279 -1 x282 -1 x285 -1 x288 -1 x291 -1 x294 -1 x297 -1 x300 >= -10;
+1 x247 +1 x250 +1 x253 +1 x256 +1 x259 +1 x262 +1 x265 +1 x268 +1 x271 +1 x274 +1 x277 +1 x280 +1 x283 +1 x286 +1 x289 +1 x292 +1 x295 +1 x298 +1 x301 >= 9;
-1 x247 -1 x250 -1 x253 -1 x256 -1 x259 -1 x262 -1 x265 -1 x268 -1 x271 -1 x274 -1 x277 -1 x280 -1 x283 -1 x286 -1 x289 -1 x292 -1 x295 -1 x298 -1 x301 >= -10;
+1 x248 +1 x251 +1 x254 +1 x257 +1 x260 +1 x263 +1 x266 +1 x269 +1 x272 +1 x275 +1 x278 +1 x281 +1 x284 +1 x287 +1 x290 +1 x293 +1 x296 +1 x299 +1 x302 >= 9;
-1 x248 -1 x251 -1 x254 -1 x257 -1 x260 -1 x263 -1 x266 -1 x269 -1 x272 -1 x275 -1 x278 -1 x281 -1 x284 -1 x287 -1 x290 -1 x293 -1 x296 -1 x299 -1 x302 >= -10;
+1 x249 +1 x252 +1 x255 +1 x258 +1 x261 +1 x264 +1 x267 +1 x270 +1 x273 +1 x276 +1 x279 +1 x282 +1 x285 +1 x288 +1 x291 +1 x294 +1 x297 +1 x300 +1 x303 >= 9;
-1 x249 -1 x252 -1 x255 -1 x258 -1 x261 -1 x264 -1 x267 -1 x270 -1 x273 -1 x276 -1 x279 -1 x282 -1 x285 -1 x288 -1 x291 -1 x294 -1 x297 -1 x300 -1 x303 >= -10;
+1 x250 +1 x253 +1 x256 +1 x259 +1 x262 +1 x265 +1 x268 +1 x271 +1 x274 +1 x277 +1 x280 +1 x283 +1 x286 +1 x289 +1 x292 +1 x295 +1 x298 +1 x301 +1 x304 >= 9;
-1 x250 -1 x253 -1 x256 -1 x259 -1 x262 -1 x265 -1 x268 -1 x271 -1 x274 -1 x277 -1 x280 -1 x283 -1 x286 -1 x289 -1 x292 -1 x295 -1 x298 -1 x301 -1 x304 >= -10;
+1 x251 +1 x254 +1 x257 +1 x260 +1 x263 +1 x266 +1 x269 +1 x272 +1 x275 +1 x278 +1 x281 +1 x284 +1 x287 +1 x290 +1 x293 +1 x296 +1 x299 +1 x302 +1 x305 >= 9;
-1 x251 -1 x254 -1 x257 -1 x260 -1 x263 -1 x266 -1 x269 -1 x272 -1 x275 -1 x278 -1 x281 -1 x284 -1 x287 -1 x290 -1 x293 -1 x296 -1 x299 -1 x302 -1 x305 >= -10;
+1 x252 +1 x255 +1 x258 +1 x261 +1 x264 +1 x267 +1 x270 +1 x273 +1 x276 +1 x279 +1 x282 +1 x285 +1 x288 +1 x291 +1 x294 +1 x297 +1 x300 +1 x303 +1 x306 >= 9;
-1 x252 -1 x255 -1 x258 -1 x261 -1 x264 -1 x267 -1 x270 -1 x273 -1 x276 -1 x279 -1 x282 -1 x285 -1 x288 -1 x291 -1 x294 -1 x297 -1 x300 -1 x303 -1 x306 >= -10;
+1 x253 +1 x256 +1 x259 +1 x262 +1 x265 +1 x268 +1 x271 +1 x274 +1 x277 +1 x280 +1 x283 +1 x286 +1 x289 +1 x292 +1 x295 +1 x298 +1 x301 +1 x304 +1 x307 >= 9;
-1 x253 -1 x256 -1 x259 -1 x262 -1 x265 -1 x268 -1 x271 -1 x274 -1 x277 -1 x280 -1 x283 -1 x286 -1 x289 -1 x292 -1 x295 -1 x298 -1 x301 -1 x304 -1 x307 >= -10;
+1 x254 +1 x257 +1 x260 +1 x263 +1 x266 +1 x269 +1 x272 +1 x275 +1 x278 +1 x281 +1 x284 +1 x287 +1 x290 +1 x293 +1 x296 +1 x299 +1 x302 +1 x305 +1 x308 >= 9;
-1 x254 -1 x257 -1 x260 -1 x263 -1 x266 -1 x269 -1 x272 -1 x275 -1 x278 -1 x281 -1 x284 -1 x287 -1 x290 -1 x293 -1 x296 -1 x299 -1 x302 -1 x305 -1 x308 >= -10;
+1 x255 +1 x258 +1 x261 +1 x264 +1 x267 +1 x270 +1 x273 +1 x276 +1 x279 +1 x282 +1 x285 +1 x288 +1 x291 +1 x294 +1 x297 +1 x300 +1 x303 +1 x306 +1 x309 >= 9;
-1 x255 -1 x258 -1 x261 -1 x264 -1 x267 -1 x270 -1 x273 -1 x276 -1 x279 -1 x282 -1 x285 -1 x288 -1 x291 -1 x294 -1 x297 -1 x300 -1 x303 -1 x306 -1 x309 >= -10;
+1 x256 +1 x259 +1 x262 +1 x265 +1 x268 +1 x271 +1 x274 +1 x277 +1 x280 +1 x283 +1 x286 +1 x289 +1 x292 +1 x295 +1 x298 +1 x301 +1 x304 +1 x307 +1 x310 >= 9;
-1 x256 -1 x259 -1 x262 -1 x265 -1 x268 -1 x271 -1 x274 -1 x277 -1 x280 -1 x283 -1 x286 -1 x289 -1 x292 -1 x295 -1 x298 -1 x301 -1 x304 -1 x307 -1 x310 >= -10;
+1 x257 +1 x260 +1 x263 +1 x266 +1 x269 +1 x272 +1 x275 +1 x278 +1 x281 +1 x284 +1 x287 +1 x290 +1 x293 +1 x296 +1 x299 +1 x302 +1 x305 +1 x308 +1 x311 >= 9;
-1 x257 -1 x260 -1 x263 -1 x266 -1 x269 -1 x272 -1 x275 -1 x278 -1 x281 -1 x284 -1 x287 -1 x290 -1 x293 -1 x296 -1 x299 -1 x302 -1 x305 -1 x308 -1 x311 >= -10;
+1 x258 +1 x261 +1 x264 +1 x267 +1 x270 +1 x273 +1 x276 +1 x279 +1 x282 +1 x285 +1 x288 +1 x291 +1 x294 +1 x297 +1 x300 +1 x303 +1 x306 +1 x309 +1 x312 >= 9;
-1 x258 -1 x261 -1 x264 -1 x267 -1 x270 -1 x273 -1 x276 -1 x279 -1 x282 -1 x285 -1 x288 -1 x291 -1 x294 -1 x297 -1 x300 -1 x303 -1 x306 -1 x309 -1 x312 >= -10;
+1 x259 +1 x262 +1 x265 +1 x268 +1 x271 +1 x274 +1 x277 +1 x280 +1 x283 +1 x286 +1 x289 +1 x292 +1 x295 +1 x298 +1 x301 +1 x304 +1 x307 +1 x310 +1 x313 >= 9;
-1 x259 -1 x262 -1 x265 -1 x268 -1 x271 -1 x274 -1 x277 -1 x280 -1 x283 -1 x286 -1 x289 -1 x292 -1 x295 -1 x298 -1 x301 -1 x304 -1 x307 -1 x310 -1 x313 >= -10;
+1 x260 +1 x263 +1 x266 +1 x269 +1 x272 +1 x275 +1 x278 +1 x281 +1 x284 +1 x287 +1 x290 +1 x293 +1 x296 +1 x299 +1 x302 +1 x305 +1 x308 +1 x311 +1 x314 >= 9;
-1 x260 -1 x263 -1 x266 -1 x269 -1 x272 -1 x275 -1 x278 -1 x281 -1 x284 -1 x287 -1 x290 -1 x293 -1 x296 -1 x299 -1 x302 -1 x305 -1 x308 -1 x311 -1 x314 >= -10;
+1 x261 +1 x264 +1 x267 +1 x270 +1 x273 +1 x276 +1 x279 +1 x282 +1 x285 +1 x288 +1 x291 +1 x294 +1 x297 +1 x300 +1 x303 +1 x306 +1 x309 +1 x312 +1 x315 >= 9;
-1 x261 -1 x264 -1 x267 -1 x270 -1 x273 -1 x276 -1 x279 -1 x282 -1 x285 -1 x288 -1 x291 -1 x294 -1 x297 -1 x300 -1 x303 -1 x306 -1 x309 -1 x312 -1 x315 >= -10;
+1 x262 +1 x265 +1 x268 +1 x271 +1 x274 +1 x277 +1 x280 +1 x283 +1 x286 +1 x289 +1 x292 +1 x295 +1 x298 +1 x301 +1 x304 +1 x307 +1 x310 +1 x313 +1 x316 >= 9;
-1 x262 -1 x265 -1 x268 -1 x271 -1 x274 -1 x277 -1 x280 -1 x283 -1 x286 -1 x289 -1 x292 -1 x295 -1 x298 -1 x301 -1 x304 -1 x307 -1 x310 -1 x313 -1 x316 >= -10;
+1 x263 +1 x266 +1 x269 +1 x272 +1 x275 +1 x278 +1 x281 +1 x284 +1 x287 +1 x290 +1 x293 +1 x296 +1 x299 +1 x302 +1 x305 +1 x308 +1 x311 +1 x314 +1 x317 >= 9;
-1 x263 -1 x266 -1 x269 -1 x272 -1 x275 -1 x278 -1 x281 -1 x284 -1 x287 -1 x290 -1 x293 -1 x296 -1 x299 -1 x302 -1 x305 -1 x308 -1 x311 -1 x314 -1 x317 >= -10;
+1 x264 +1 x267 +1 x270 +1 x273 +1 x276 +1 x279 +1 x282 +1 x285 +1 x288 +1 x291 +1 x294 +1 x297 +1 x300 +1 x303 +1 x306 +1 x309 +1 x312 +1 x315 +1 x318 >= 9;
-1 x264 -1 x267 -1 x270 -1 x273 -1 x276 -1 x279 -1 x282 -1 x285 -1 x288 -1 x291 -1 x294 -1 x297 -1 x300 -1 x303 -1 x306 -1 x309 -1 x312 -1 x315 -1 x318 >= -10;
+1 x265 +1 x268 +1 x271 +1 x274 +1 x277 +1 x280 +1 x283 +1 x286 +1 x289 +1 x292 +1 x295 +1 x298 +1 x301 +1 x304 +1 x307 +1 x310 +1 x313 +1 x316 +1 x319 >= 9;
-1 x265 -1 x268 -1 x271 -1 x274 -1 x277 -1 x280 -1 x283 -1 x286 -1 x289 -1 x292 -1 x295 -1 x298 -1 x301 -1 x304 -1 x307 -1 x310 -1 x313 -1 x316 -1 x319 >= -10;
+1 x266 +1 x269 +1 x272 +1 x275 +1 x278 +1 x281 +1 x284 +1 x287 +1 x290 +1 x293 +1 x296 +1 x299 +1 x302 +1 x305 +1 x308 +1 x311 +1 x314 +1 x317 +1 x320 >= 9;
-1 x266 -1 x269 -1 x272 -1 x275 -1 x278 -1 x281 -1 x284 -1 x287 -1 x290 -1 x293 -1 x296 -1 x299 -1 x302 -1 x305 -1 x308 -1 x311 -1 x314 -1 x317 -1 x320 >= -10;
+1 x267 +1 x270 +1 x273 +1 x276 +1 x279 +1 x282 +1 x285 +1 x288 +1 x291 +1 x294 +1 x297 +1 x300 +1 x303 +1 x306 +1 x309 +1 x312 +1 x315 +1 x318 +1 x321 >= 9;
-1 x267 -1 x270 -1 x273 -1 x276 -1 x279 -1 x282 -1 x285 -1 x288 -1 x291 -1 x294 -1 x297 -1 x300 -1 x303 -1 x306 -1 x309 -1 x312 -1 x315 -1 x318 -1 x321 >= -10;
+1 x268 +1 x271 +1 x274 +1 x277 +1 x280 +1 x283 +1 x286 +1 x289 +1 x292 +1 x295 +1 x298 +1 x301 +1 x304 +1 x307 +1 x310 +1 x313 +1 x316 +1 x319 +1 x322 >= 9;
-1 x268 -1 x271 -1 x274 -1 x277 -1 x280 -1 x283 -1 x286 -1 x289 -1 x292 -1 x295 -1 x298 -1 x301 -1 x304 -1 x307 -1 x310 -1 x313 -1 x316 -1 x319 -1 x322 >= -10;
+1 x269 +1 x272 +1 x275 +1 x278 +1 x281 +1 x284 +1 x287 +1 x290 +1 x293 +1 x296 +1 x299 +1 x302 +1 x305 +1 x308 +1 x311 +1 x314 +1 x317 +1 x320 +1 x323 >= 9;
-1 x269 -1 x272 -1 x275 -1 x278 -1 x281 -1 x284 -1 x287 -1 x290 -1 x293 -1 x296 -1 x299 -1 x302 -1 x305 -1 x308 -1 x311 -1 x314 -1 x317 -1 x320 -1 x323 >= -10;
+1 x270 +1 x273 +1 x276 +1 x279 +1 x282 +1 x285 +1 x288 +1 x291 +1 x294 +1 x297 +1 x300 +1 x303 +1 x306 +1 x309 +1 x312 +1 x315 +1 x318 +1 x321 +1 x324 >= 9;
-1 x270 -1 x273 -1 x276 -1 x279 -1 x282 -1 x285 -1 x288 -1 x291 -1 x294 -1 x297 -1 x300 -1 x303 -1 x306 -1 x309 -1 x312 -1 x315 -1 x318 -1 x321 -1 x324 >= -10;
+1 x271 +1 x274 +1 x277 +1 x280 +1 x283 +1 x286 +1 x289 +1 x292 +1 x295 +1 x298 +1 x301 +1 x304 +1 x307 +1 x310 +1 x313 +1 x316 +1 x319 +1 x322 +1 x325 >= 9;
-1 x271 -1 x274 -1 x277 -1 x280 -1 x283 -1 x286 -1 x289 -1 x292 -1 x295 -1 x298 -1 x301 -1 x304 -1 x307 -1 x310 -1 x313 -1 x316 -1 x319 -1 x322 -1 x325 >= -10;
+1 x272 +1 x275 +1 x278 +1 x281 +1 x284 +1 x287 +1 x290 +1 x293 +1 x296 +1 x299 +1 x302 +1 x305 +1 x308 +1 x311 +1 x314 +1 x317 +1 x320 +1 x323 +1 x326 >= 9;
-1 x272 -1 x275 -1 x278 -1 x281 -1 x284 -1 x287 -1 x290 -1 x293 -1 x296 -1 x299 -1 x302 -1 x305 -1 x308 -1 x311 -1 x314 -1 x317 -1 x320 -1 x323 -1 x326 >= -10;
+1 x273 +1 x276 +1 x279 +1 x282 +1 x285 +1 x288 +1 x291 +1 x294 +1 x297 +1 x300 +1 x303 +1 x306 +1 x309 +1 x312 +1 x315 +1 x318 +1 x321 +1 x324 +1 x327 >= 9;
-1 x273 -1 x276 -1 x279 -1 x282 -1 x285 -1 x288 -1 x291 -1 x294 -1 x297 -1 x300 -1 x303 -1 x306 -1 x309 -1 x312 -1 x315 -1 x318 -1 x321 -1 x324 -1 x327 >= -10;
+1 x274 +1 x277 +1 x280 +1 x283 +1 x286 +1 x289 +1 x292 +1 x295 +1 x298 +1 x301 +1 x304 +1 x307 +1 x310 +1 x313 +1 x316 +1 x319 +1 x322 +1 x325 +1 x328 >= 9;
-1 x274 -1 x277 -1 x280 -1 x283 -1 x286 -1 x289 -1 x292 -1 x295 -1 x298 -1 x301 -1 x304 -1 x307 -1 x310 -1 x313 -1 x316 -1 x319 -1 x322 -1 x325 -1 x328 >= -10;
+1 x275 +1 x278 +1 x281 +1 x284 +1 x287 +1 x290 +1 x293 +1 x296 +1 x299 +1 x302 +1 x305 +1 x308 +1 x311 +1 x314 +1 x317 +1 x320 +1 x323 +1 x326 +1 x329 >= 9;
-1 x275 -1 x278 -1 x281 -1 x284 -1 x287 -1 x290 -1 x293 -1 x296 -1 x299 -1 x302 -1 x305 -1 x308 -1 x311 -1 x314 -1 x317 -1 x320 -1 x323 -1 x326 -1 x329 >= -10;
+1 x276 +1 x279 +1 x282 +1 x285 +1 x288 +1 x291 +1 x294 +1 x297 +1 x300 +1 x303 +1 x306 +1 x309 +1 x312 +1 x315 +1 x318 +1 x321 +1 x324 +1 x327 +1 x330 >= 9;
-1 x276 -1 x279 -1 x282 -1 x285 -1 x288 -1 x291 -1 x294 -1 x297 -1 x300 -1 x303 -1 x306 -1 x309 -1 x312 -1 x315 -1 x318 -1 x321 -1 x324 -1 x327 -1 x330 >= -10;
+1 x277 +1 x280 +1 x283 +1 x286 +1 x289 +1 x292 +1 x295 +1 x298 +1 x301 +1 x304 +1 x307 +1 x310 +1 x313 +1 x316 +1 x319 +1 x322 +1 x325 +1 x328 +1 x331 >= 9;
-1 x277 -1 x280 -1 x283 -1 x286 -1 x289 -1 x292 -1 x295 -1 x298 -1 x301 -1 x304 -1 x307 -1 x310 -1 x313 -1 x316 -1 x319 -1 x322 -1 x325 -1 x328 -1 x331 >= -10;
+1 x278 +1 x281 +1 x284 +1 x287 +1 x290 +1 x293 +1 x296 +1 x299 +1 x302 +1 x305 +1 x308 +1 x311 +1 x314 +1 x317 +1 x320 +1 x323 +1 x326 +1 x329 +1 x332 >= 9;
-1 x278 -1 x281 -1 x284 -1 x287 -1 x290 -1 x293 -1 x296 -1 x299 -1 x302 -1 x305 -1 x308 -1 x311 -1 x314 -1 x317 -1 x320 -1 x323 -1 x326 -1 x329 -1 x332 >= -10;
+1 x279 +1 x282 +1 x285 +1 x288 +1 x291 +1 x294 +1 x297 +1 x300 +1 x303 +1 x306 +1 x309 +1 x312 +1 x315 +1 x318 +1 x321 +1 x324 +1 x327 +1 x330 +1 x333 >= 9;
-1 x279 -1 x282 -1 x285 -1 x288 -1 x291 -1 x294 -1 x297 -1 x300 -1 x303 -1 x306 -1 x309 -1 x312 -1 x315 -1 x318 -1 x321 -1 x324 -1 x327 -1 x330 -1 x333 >= -10;
+1 x280 +1 x283 +1 x286 +1 x289 +1 x292 +1 x295 +1 x298 +1 x301 +1 x304 +1 x307 +1 x310 +1 x313 +1 x316 +1 x319 +1 x322 +1 x325 +1 x328 +1 x331 +1 x334 >= 9;
-1 x280 -1 x283 -1 x286 -1 x289 -1 x292 -1 x295 -1 x298 -1 x301 -1 x304 -1 x307 -1 x310 -1 x313 -1 x316 -1 x319 -1 x322 -1 x325 -1 x328 -1 x331 -1 x334 >= -10;
+1 x281 +1 x284 +1 x287 +1 x290 +1 x293 +1 x296 +1 x299 +1 x302 +1 x305 +1 x308 +1 x311 +1 x314 +1 x317 +1 x320 +1 x323 +1 x326 +1 x329 +1 x332 +1 x335 >= 9;
-1 x281 -1 x284 -1 x287 -1 x290 -1 x293 -1 x296 -1 x299 -1 x302 -1 x305 -1 x308 -1 x311 -1 x314 -1 x317 -1 x320 -1 x323 -1 x326 -1 x329 -1 x332 -1 x335 >= -10;
+1 x282 +1 x285 +1 x288 +1 x291 +1 x294 +1 x297 +1 x300 +1 x303 +1 x306 +1 x309 +1 x312 +1 x315 +1 x318 +1 x321 +1 x324 +1 x327 +1 x330 +1 x333 +1 x336 >= 9;
-1 x282 -1 x285 -1 x288 -1 x291 -1 x294 -1 x297 -1 x300 -1 x303 -1 x306 -1 x309 -1 x312 -1 x315 -1 x318 -1 x321 -1 x324 -1 x327 -1 x330 -1 x333 -1 x336 >= -10;
+1 x283 +1 x286 +1 x289 +1 x292 +1 x295 +1 x298 +1 x301 +1 x304 +1 x307 +1 x310 +1 x313 +1 x316 +1 x319 +1 x322 +1 x325 +1 x328 +1 x331 +1 x334 +1 x337 >= 9;
-1 x283 -1 x286 -1 x289 -1 x292 -1 x295 -1 x298 -1 x301 -1 x304 -1 x307 -1 x310 -1 x313 -1 x316 -1 x319 -1 x322 -1 x325 -1 x328 -1 x331 -1 x334 -1 x337 >= -10;
+1 x284 +1 x287 +1 x290 +1 x293 +1 x296 +1 x299 +1 x302 +1 x305 +1 x308 +1 x311 +1 x314 +1 x317 +1 x320 +1 x323 +1 x326 +1 x329 +1 x332 +1 x335 +1 x338 >= 9;
-1 x284 -1 x287 -1 x290 -1 x293 -1 x296 -1 x299 -1 x302 -1 x305 -1 x308 -1 x311 -1 x314 -1 x317 -1 x320 -1 x323 -1 x326 -1 x329 -1 x332 -1 x335 -1 x338 >= -10;
+1 x285 +1 x288 +1 x291 +1 x294 +1 x297 +1 x300 +1 x303 +1 x306 +1 x309 +1 x312 +1 x315 +1 x318 +1 x321 +1 x324 +1 x327 +1 x330 +1 x333 +1 x336 +1 x339 >= 9;
-1 x285 -1 x288 -1 x291 -1 x294 -1 x297 -1 x300 -1 x303 -1 x306 -1 x309 -1 x312 -1 x315 -1 x318 -1 x321 -1 x324 -1 x327 -1 x330 -1 x333 -1 x336 -1 x339 >= -10;
+1 x286 +1 x289 +1 x292 +1 x295 +1 x298 +1 x301 +1 x304 +1 x307 +1 x310 +1 x313 +1 x316 +1 x319 +1 x322 +1 x325 +1 x328 +1 x331 +1 x334 +1 x337 +1 x340 >= 9;
-1 x286 -1 x289 -1 x292 -1 x295 -1 x298 -1 x301 -1 x304 -1 x307 -1 x310 -1 x313 -1 x316 -1 x319 -1 x322 -1 x325 -1 x328 -1 x331 -1 x334 -1 x337 -1 x340 >= -10;
+1 x287 +1 x290 +1 x293 +1 x296 +1 x299 +1 x302 +1 x305 +1 x308 +1 x311 +1 x314 +1 x317 +1 x320 +1 x323 +1 x326 +1 x329 +1 x332 +1 x335 +1 x338 +1 x341 >= 9;
-1 x287 -1 x290 -1 x293 -1 x296 -1 x299 -1 x302 -1 x305 -1 x308 -1 x311 -1 x314 -1 x317 -1 x320 -1 x323 -1 x326 -1 x329 -1 x332 -1 x335 -1 x338 -1 x341 >= -10;
+1 x288 +1 x291 +1 x294 +1 x297 +1 x300 +1 x303 +1 x306 +1 x309 +1 x312 +1 x315 +1 x318 +1 x321 +1 x324 +1 x327 +1 x330 +1 x333 +1 x336 +1 x339 +1 x342 >= 9;
-1 x288 -1 x291 -1 x294 -1 x297 -1 x300 -1 x303 -1 x306 -1 x309 -1 x312 -1 x315 -1 x318 -1 x321 -1 x324 -1 x327 -1 x330 -1 x333 -1 x336 -1 x339 -1 x342 >= -10;
+1 x289 +1 x292 +1 x295 +1 x298 +1 x301 +1 x304 +1 x307 +1 x310 +1 x313 +1 x316 +1 x319 +1 x322 +1 x325 +1 x328 +1 x331 +1 x334 +1 x337 +1 x340 +1 x343 >= 9;
-1 x289 -1 x292 -1 x295 -1 x298 -1 x301 -1 x304 -1 x307 -1 x310 -1 x313 -1 x316 -1 x319 -1 x322 -1 x325 -1 x328 -1 x331 -1 x334 -1 x337 -1 x340 -1 x343 >= -10;
+1 x290 +1 x293 +1 x296 +1 x299 +1 x302 +1 x305 +1 x308 +1 x311 +1 x314 +1 x317 +1 x320 +1 x323 +1 x326 +1 x329 +1 x332 +1 x335 +1 x338 +1 x341 +1 x344 >= 9;
-1 x290 -1 x293 -1 x296 -1 x299 -1 x302 -1 x305 -1 x308 -1 x311 -1 x314 -1 x317 -1 x320 -1 x323 -1 x326 -1 x329 -1 x332 -1 x335 -1 x338 -1 x341 -1 x344 >= -10;
+1 x1 +1 x5 +1 x9 +1 x13 +1 x17 +1 x21 +1 x25 +1 x29 +1 x33 +1 x37 +1 x41 +1 x45 +1 x49 +1 x53 +1 x57 +1 x61 +1 x65 +1 x69 +1 x73 >= 9;
-1 x1 -1 x5 -1 x9 -1 x13 -1 x17 -1 x21 -1 x25 -1 x29 -1 x33 -1 x37 -1 x41 -1 x45 -1 x49 -1 x53 -1 x57 -1 x61 -1 x65 -1 x69 -1 x73 >= -10;
+1 x2 +1 x6 +1 x10 +1 x14 +1 x18 +1 x22 +1 x26 +1 x30 +1 x34 +1 x38 +1 x42 +1 x46 +1 x50 +1 x54 +1 x58 +1 x62 +1 x66 +1 x70 +1 x74 >= 9;
-1 x2 -1 x6 -1 x10 -1 x14 -1 x18 -1 x22 -1 x26 -1 x30 -1 x34 -1 x38 -1 x42 -1 x46 -1 x50 -1 x54 -1 x58 -1 x62 -1 x66 -1 x70 -1 x74 >= -10;
+1 x3 +1 x7 +1 x11 +1 x15 +1 x19 +1 x23 +1 x27 +1 x31 +1 x35 +1 x39 +1 x43 +1 x47 +1 x51 +1 x55 +1 x59 +1 x63 +1 x67 +1 x71 +1 x75 >= 9;
-1 x3 -1 x7 -1 x11 -1 x15 -1 x19 -1 x23 -1 x27 -1 x31 -1 x35 -1 x39 -1 x43 -1 x47 -1 x51 -1 x55 -1 x59 -1 x63 -1 x67 -1 x71 -1 x75 >= -10;
+1 x4 +1 x8 +1 x12 +1 x16 +1 x20 +1 x24 +1 x28 +1 x32 +1 x36 +1 x40 +1 x44 +1 x48 +1 x52 +1 x56 +1 x60 +1 x64 +1 x68 +1 x72 +1 x76 >= 9;
-1 x4 -1 x8 -1 x12 -1 x16 -1 x20 -1 x24 -1 x28 -1 x32 -1 x36 -1 x40 -1 x44 -1 x48 -1 x52 -1 x56 -1 x60 -1 x64 -1 x68 -1 x72 -1 x76 >= -10;
+1 x5 +1 x9 +1 x13 +1 x17 +1 x21 +1 x25 +1 x29 +1 x33 +1 x37 +1 x41 +1 x45 +1 x49 +1 x53 +1 x57 +1 x61 +1 x65 +1 x69 +1 x73 +1 x77 >= 9;
-1 x5 -1 x9 -1 x13 -1 x17 -1 x21 -1 x25 -1 x29 -1 x33 -1 x37 -1 x41 -1 x45 -1 x49 -1 x53 -1 x57 -1 x61 -1 x65 -1 x69 -1 x73 -1 x77 >= -10;
+1 x6 +1 x10 +1 x14 +1 x18 +1 x22 +1 x26 +1 x30 +1 x34 +1 x38 +1 x42 +1 x46 +1 x50 +1 x54 +1 x58 +1 x62 +1 x66 +1 x70 +1 x74 +1 x78 >= 9;
-1 x6 -1 x10 -1 x14 -1 x18 -1 x22 -1 x26 -1 x30 -1 x34 -1 x38 -1 x42 -1 x46 -1 x50 -1 x54 -1 x58 -1 x62 -1 x66 -1 x70 -1 x74 -1 x78 >= -10;
+1 x7 +1 x11 +1 x15 +1 x19 +1 x23 +1 x27 +1 x31 +1 x35 +1 x39 +1 x43 +1 x47 +1 x51 +1 x55 +1 x59 +1 x63 +1 x67 +1 x71 +1 x75 +1 x79 >= 9;
-1 x7 -1 x11 -1 x15 -1 x19 -1 x23 -1 x27 -1 x31 -1 x35 -1 x39 -1 x43 -1 x47 -1 x51 -1 x55 -1 x59 -1 x63 -1 x67 -1 x71 -1 x75 -1 x79 >= -10;
+1 x8 +1 x12 +1 x16 +1 x20 +1 x24 +1 x28 +1 x32 +1 x36 +1 x40 +1 x44 +1 x48 +1 x52 +1 x56 +1 x60 +1 x64 +1 x68 +1 x72 +1 x76 +1 x80 >= 9;
-1 x8 -1 x12 -1 x16 -1 x20 -1 x24 -1 x28 -1 x32 -1 x36 -1 x40 -1 x44 -1 x48 -1 x52 -1 x56 -1 x60 -1 x64 -1 x68 -1 x72 -1 x76 -1 x80 >= -10;
+1 x9 +1 x13 +1 x17 +1 x21 +1 x25 +1 x29 +1 x33 +1 x37 +1 x41 +1 x45 +1 x49 +1 x53 +1 x57 +1 x61 +1 x65 +1 x69 +1 x73 +1 x77 +1 x81 >= 9;
-1 x9 -1 x13 -1 x17 -1 x21 -1 x25 -1 x29 -1 x33 -1 x37 -1 x41 -1 x45 -1 x49 -1 x53 -1 x57 -1 x61 -1 x65 -1 x69 -1 x73 -1 x77 -1 x81 >= -10;
+1 x10 +1 x14 +1 x18 +1 x22 +1 x26 +1 x30 +1 x34 +1 x38 +1 x42 +1 x46 +1 x50 +1 x54 +1 x58 +1 x62 +1 x66 +1 x70 +1 x74 +1 x78 +1 x82 >= 9;
-1 x10 -1 x14 -1 x18 -1 x22 -1 x26 -1 x30 -1 x34 -1 x38 -1 x42 -1 x46 -1 x50 -1 x54 -1 x58 -1 x62 -1 x66 -1 x70 -1 x74 -1 x78 -1 x82 >= -10;
+1 x11 +1 x15 +1 x19 +1 x23 +1 x27 +1 x31 +1 x35 +1 x39 +1 x43 +1 x47 +1 x51 +1 x55 +1 x59 +1 x63 +1 x67 +1 x71 +1 x75 +1 x79 +1 x83 >= 9;
-1 x11 -1 x15 -1 x19 -1 x23 -1 x27 -1 x31 -1 x35 -1 x39 -1 x43 -1 x47 -1 x51 -1 x55 -1 x59 -1 x63 -1 x67 -1 x71 -1 x75 -1 x79 -1 x83 >= -10;
+1 x12 +1 x16 +1 x20 +1 x24 +1 x28 +1 x32 +1 x36 +1 x40 +1 x44 +1 x48 +1 x52 +1 x56 +1 x60 +1 x64 +1 x68 +1 x72 +1 x76 +1 x80 +1 x84 >= 9;
-1 x12 -1 x16 -1 x20 -1 x24 -1 x28 -1 x32 -1 x36 -1 x40 -1 x44 -1 x48 -1 x52 -1 x56 -1 x60 -1 x64 -1 x68 -1 x72 -1 x76 -1 x80 -1 x84 >= -10;
+1 x13 +1 x17 +1 x21 +1 x25 +1 x29 +1 x33 +1 x37 +1 x41 +1 x45 +1 x49 +1 x53 +1 x57 +1 x61 +1 x65 +1 x69 +1 x73 +1 x77 +1 x81 +1 x85 >= 9;
-1 x13 -1 x17 -1 x21 -1 x25 -1 x29 -1 x33 -1 x37 -1 x41 -1 x45 -1 x49 -1 x53 -1 x57 -1 x61 -1 x65 -1 x69 -1 x73 -1 x77 -1 x81 -1 x85 >= -10;
+1 x14 +1 x18 +1 x22 +1 x26 +1 x30 +1 x34 +1 x38 +1 x42 +1 x46 +1 x50 +1 x54 +1 x58 +1 x62 +1 x66 +1 x70 +1 x74 +1 x78 +1 x82 +1 x86 >= 9;
-1 x14 -1 x18 -1 x22 -1 x26 -1 x30 -1 x34 -1 x38 -1 x42 -1 x46 -1 x50 -1 x54 -1 x58 -1 x62 -1 x66 -1 x70 -1 x74 -1 x78 -1 x82 -1 x86 >= -10;
+1 x15 +1 x19 +1 x23 +1 x27 +1 x31 +1 x35 +1 x39 +1 x43 +1 x47 +1 x51 +1 x55 +1 x59 +1 x63 +1 x67 +1 x71 +1 x75 +1 x79 +1 x83 +1 x87 >= 9;
-1 x15 -1 x19 -1 x23 -1 x27 -1 x31 -1 x35 -1 x39 -1 x43 -1 x47 -1 x51 -1 x55 -1 x59 -1 x63 -1 x67 -1 x71 -1 x75 -1 x79 -1 x83 -1 x87 >= -10;
+1 x16 +1 x20 +1 x24 +1 x28 +1 x32 +1 x36 +1 x40 +1 x44 +1 x48 +1 x52 +1 x56 +1 x60 +1 x64 +1 x68 +1 x72 +1 x76 +1 x80 +1 x84 +1 x88 >= 9;
-1 x16 -1 x20 -1 x24 -1 x28 -1 x32 -1 x36 -1 x40 -1 x44 -1 x48 -1 x52 -1 x56 -1 x60 -1 x64 -1 x68 -1 x72 -1 x76 -1 x80 -1 x84 -1 x88 >= -10;
+1 x17 +1 x21 +1 x25 +1 x29 +1 x33 +1 x37 +1 x41 +1 x45 +1 x49 +1 x53 +1 x57 +1 x61 +1 x65 +1 x69 +1 x73 +1 x77 +1 x81 +1 x85 +1 x89 >= 9;
-1 x17 -1 x21 -1 x25 -1 x29 -1 x33 -1 x37 -1 x41 -1 x45 -1 x49 -1 x53 -1 x57 -1 x61 -1 x65 -1 x69 -1 x73 -1 x77 -1 x81 -1 x85 -1 x89 >= -10;
+1 x18 +1 x22 +1 x26 +1 x30 +1 x34 +1 x38 +1 x42 +1 x46 +1 x50 +1 x54 +1 x58 +1 x62 +1 x66 +1 x70 +1 x74 +1 x78 +1 x82 +1 x86 +1 x90 >= 9;
-1 x18 -1 x22 -1 x26 -1 x30 -1 x34 -1 x38 -1 x42 -1 x46 -1 x50 -1 x54 -1 x58 -1 x62 -1 x66 -1 x70 -1 x74 -1 x78 -1 x82 -1 x86 -1 x90 >= -10;
+1 x19 +1 x23 +1 x27 +1 x31 +1 x35 +1 x39 +1 x43 +1 x47 +1 x51 +1 x55 +1 x59 +1 x63 +1 x67 +1 x71 +1 x75 +1 x79 +1 x83 +1 x87 +1 x91 >= 9;
-1 x19 -1 x23 -1 x27 -1 x31 -1 x35 -1 x39 -1 x43 -1 x47 -1 x51 -1 x55 -1 x59 -1 x63 -1 x67 -1 x71 -1 x75 -1 x79 -1 x83 -1 x87 -1 x91 >= -10;
+1 x20 +1 x24 +1 x28 +1 x32 +1 x36 +1 x40 +1 x44 +1 x48 +1 x52 +1 x56 +1 x60 +1 x64 +1 x68 +1 x72 +1 x76 +1 x80 +1 x84 +1 x88 +1 x92 >= 9;
-1 x20 -1 x24 -1 x28 -1 x32 -1 x36 -1 x40 -1 x44 -1 x48 -1 x52 -1 x56 -1 x60 -1 x64 -1 x68 -1 x72 -1 x76 -1 x80 -1 x84 -1 x88 -1 x92 >= -10;
+1 x21 +1 x25 +1 x29 +1 x33 +1 x37 +1 x41 +1 x45 +1 x49 +1 x53 +1 x57 +1 x61 +1 x65 +1 x69 +1 x73 +1 x77 +1 x81 +1 x85 +1 x89 +1 x93 >= 9;
-1 x21 -1 x25 -1 x29 -1 x33 -1 x37 -1 x41 -1 x45 -1 x49 -1 x53 -1 x57 -1 x61 -1 x65 -1 x69 -1 x73 -1 x77 -1 x81 -1 x85 -1 x89 -1 x93 >= -10;
+1 x22 +1 x26 +1 x30 +1 x34 +1 x38 +1 x42 +1 x46 +1 x50 +1 x54 +1 x58 +1 x62 +1 x66 +1 x70 +1 x74 +1 x78 +1 x82 +1 x86 +1 x90 +1 x94 >= 9;
-1 x22 -1 x26 -1 x30 -1 x34 -1 x38 -1 x42 -1 x46 -1 x50 -1 x54 -1 x58 -1 x62 -1 x66 -1 x70 -1 x74 -1 x78 -1 x82 -1 x86 -1 x90 -1 x94 >= -10;
+1 x23 +1 x27 +1 x31 +1 x35 +1 x39 +1 x43 +1 x47 +1 x51 +1 x55 +1 x59 +1 x63 +1 x67 +1 x71 +1 x75 +1 x79 +1 x83 +1 x87 +1 x91 +1 x95 >= 9;
-1 x23 -1 x27 -1 x31 -1 x35 -1 x39 -1 x43 -1 x47 -1 x51 -1 x55 -1 x59 -1 x63 -1 x67 -1 x71 -1 x75 -1 x79 -1 x83 -1 x87 -1 x91 -1 x95 >= -10;
+1 x24 +1 x28 +1 x32 +1 x36 +1 x40 +1 x44 +1 x48 +1 x52 +1 x56 +1 x60 +1 x64 +1 x68 +1 x72 +1 x76 +1 x80 +1 x84 +1 x88 +1 x92 +1 x96 >= 9;
-1 x24 -1 x28 -1 x32 -1 x36 -1 x40 -1 x44 -1 x48 -1 x52 -1 x56 -1 x60 -1 x64 -1 x68 -1 x72 -1 x76 -1 x80 -1 x84 -1 x88 -1 x92 -1 x96 >= -10;
+1 x25 +1 x29 +1 x33 +1 x37 +1 x41 +1 x45 +1 x49 +1 x53 +1 x57 +1 x61 +1 x65 +1 x69 +1 x73 +1 x77 +1 x81 +1 x85 +1 x89 +1 x93 +1 x97 >= 9;
-1 x25 -1 x29 -1 x33 -1 x37 -1 x41 -1 x45 -1 x49 -1 x53 -1 x57 -1 x61 -1 x65 -1 x69 -1 x73 -1 x77 -1 x81 -1 x85 -1 x89 -1 x93 -1 x97 >= -10;
+1 x26 +1 x30 +1 x34 +1 x38 +1 x42 +1 x46 +1 x50 +1 x54 +1 x58 +1 x62 +1 x66 +1 x70 +1 x74 +1 x78 +1 x82 +1 x86 +1 x90 +1 x94 +1 x98 >= 9;
-1 x26 -1 x30 -1 x34 -1 x38 -1 x42 -1 x46 -1 x50 -1 x54 -1 x58 -1 x62 -1 x66 -1 x70 -1 x74 -1 x78 -1 x82 -1 x86 -1 x90 -1 x94 -1 x98 >= -10;
+1 x27 +1 x31 +1 x35 +1 x39 +1 x43 +1 x47 +1 x51 +1 x55 +1 x59 +1 x63 +1 x67 +1 x71 +1 x75 +1 x79 +1 x83 +1 x87 +1 x91 +1 x95 +1 x99 >= 9;
-1 x27 -1 x31 -1 x35 -1 x39 -1 x43 -1 x47 -1 x51 -1 x55 -1 x59 -1 x63 -1 x67 -1 x71 -1 x75 -1 x79 -1 x83 -1 x87 -1 x91 -1 x95 -1 x99 >= -10;
+1 x28 +1 x32 +1 x36 +1 x40 +1 x44 +1 x48 +1 x52 +1 x56 +1 x60 +1 x64 +1 x68 +1 x72 +1 x76 +1 x80 +1 x84 +1 x88 +1 x92 +1 x96 +1 x100 >= 9;
-1 x28 -1 x32 -1 x36 -1 x40 -1 x44 -1 x48 -1 x52 -1 x56 -1 x60 -1 x64 -1 x68 -1 x72 -1 x76 -1 x80 -1 x84 -1 x88 -1 x92 -1 x96 -1 x100 >= -10;
+1 x29 +1 x33 +1 x37 +1 x41 +1 x45 +1 x49 +1 x53 +1 x57 +1 x61 +1 x65 +1 x69 +1 x73 +1 x77 +1 x81 +1 x85 +1 x89 +1 x93 +1 x97 +1 x101 >= 9;
-1 x29 -1 x33 -1 x37 -1 x41 -1 x45 -1 x49 -1 x53 -1 x57 -1 x61 -1 x65 -1 x69 -1 x73 -1 x77 -1 x81 -1 x85 -1 x89 -1 x93 -1 x97 -1 x101 >= -10;
+1 x30 +1 x34 +1 x38 +1 x42 +1 x46 +1 x50 +1 x54 +1 x58 +1 x62 +1 x66 +1 x70 +1 x74 +1 x78 +1 x82 +1 x86 +1 x90 +1 x94 +1 x98 +1 x102 >= 9;
-1 x30 -1 x34 -1 x38 -1 x42 -1 x46 -1 x50 -1 x54 -1 x58 -1 x62 -1 x66 -1 x70 -1 x74 -1 x78 -1 x82 -1 x86 -1 x90 -1 x94 -1 x98 -1 x102 >= -10;
+1 x31 +1 x35 +1 x39 +1 x43 +1 x47 +1 x51 +1 x55 +1 x59 +1 x63 +1 x67 +1 x71 +1 x75 +1 x79 +1 x83 +1 x87 +1 x91 +1 x95 +1 x99 +1 x103 >= 9;
-1 x31 -1 x35 -1 x39 -1 x43 -1 x47 -1 x51 -1 x55 -1 x59 -1 x63 -1 x67 -1 x71 -1 x75 -1 x79 -1 x83 -1 x87 -1 x91 -1 x95 -1 x99 -1 x103 >= -10;
+1 x32 +1 x36 +1 x40 +1 x44 +1 x48 +1 x52 +1 x56 +1 x60 +1 x64 +1 x68 +1 x72 +1 x76 +1 x80 +1 x84 +1 x88 +1 x92 +1 x96 +1 x100 +1 x104 >= 9;
-1 x32 -1 x36 -1 x40 -1 x44 -1 x48 -1 x52 -1 x56 -1 x60 -1 x64 -1 x68 -1 x72 -1 x76 -1 x80 -1 x84 -1 x88 -1 x92 -1 x96 -1 x100 -1 x104 >= -10;
+1 x33 +1 x37 +1 x41 +1 x45 +1 x49 +1 x53 +1 x57 +1 x61 +1 x65 +1 x69 +1 x73 +1 x77 +1 x81 +1 x85 +1 x89 +1 x93 +1 x97 +1 x101 +1 x105 >= 9;
-1 x33 -1 x37 -1 x41 -1 x45 -1 x49 -1 x53 -1 x57 -1 x61 -1 x65 -1 x69 -1 x73 -1 x77 -1 x81 -1 x85 -1 x89 -1 x93 -1 x97 -1 x101 -1 x105 >= -10;
+1 x34 +1 x38 +1 x42 +1 x46 +1 x50 +1 x54 +1 x58 +1 x62 +1 x66 +1 x70 +1 x74 +1 x78 +1 x82 +1 x86 +1 x90 +1 x94 +1 x98 +1 x102 +1 x106 >= 9;
-1 x34 -1 x38 -1 x42 -1 x46 -1 x50 -1 x54 -1 x58 -1 x62 -1 x66 -1 x70 -1 x74 -1 x78 -1 x82 -1 x86 -1 x90 -1 x94 -1 x98 -1 x102 -1 x106 >= -10;
+1 x35 +1 x39 +1 x43 +1 x47 +1 x51 +1 x55 +1 x59 +1 x63 +1 x67 +1 x71 +1 x75 +1 x79 +1 x83 +1 x87 +1 x91 +1 x95 +1 x99 +1 x103 +1 x107 >= 9;
-1 x35 -1 x39 -1 x43 -1 x47 -1 x51 -1 x55 -1 x59 -1 x63 -1 x67 -1 x71 -1 x75 -1 x79 -1 x83 -1 x87 -1 x91 -1 x95 -1 x99 -1 x103 -1 x107 >= -10;
+1 x36 +1 x40 +1 x44 +1 x48 +1 x52 +1 x56 +1 x60 +1 x64 +1 x68 +1 x72 +1 x76 +1 x80 +1 x84 +1 x88 +1 x92 +1 x96 +1 x100 +1 x104 +1 x108 >= 9;
-1 x36 -1 x40 -1 x44 -1 x48 -1 x52 -1 x56 -1 x60 -1 x64 -1 x68 -1 x72 -1 x76 -1 x80 -1 x84 -1 x88 -1 x92 -1 x96 -1 x100 -1 x104 -1 x108 >= -10;
+1 x37 +1 x41 +1 x45 +1 x49 +1 x53 +1 x57 +1 x61 +1 x65 +1 x69 +1 x73 +1 x77 +1 x81 +1 x85 +1 x89 +1 x93 +1 x97 +1 x101 +1 x105 +1 x109 >= 9;
-1 x37 -1 x41 -1 x45 -1 x49 -1 x53 -1 x57 -1 x61 -1 x65 -1 x69 -1 x73 -1 x77 -1 x81 -1 x85 -1 x89 -1 x93 -1 x97 -1 x101 -1 x105 -1 x109 >= -10;
+1 x38 +1 x42 +1 x46 +1 x50 +1 x54 +1 x58 +1 x62 +1 x66 +1 x70 +1 x74 +1 x78 +1 x82 +1 x86 +1 x90 +1 x94 +1 x98 +1 x102 +1 x106 +1 x110 >= 9;
-1 x38 -1 x42 -1 x46 -1 x50 -1 x54 -1 x58 -1 x62 -1 x66 -1 x70 -1 x74 -1 x78 -1 x82 -1 x86 -1 x90 -1 x94 -1 x98 -1 x102 -1 x106 -1 x110 >= -10;
+1 x39 +1 x43 +1 x47 +1 x51 +1 x55 +1 x59 +1 x63 +1 x67 +1 x71 +1 x75 +1 x79 +1 x83 +1 x87 +1 x91 +1 x95 +1 x99 +1 x103 +1 x107 +1 x111 >= 9;
-1 x39 -1 x43 -1 x47 -1 x51 -1 x55 -1 x59 -1 x63 -1 x67 -1 x71 -1 x75 -1 x79 -1 x83 -1 x87 -1 x91 -1 x95 -1 x99 -1 x103 -1 x107 -1 x111 >= -10;
+1 x40 +1 x44 +1 x48 +1 x52 +1 x56 +1 x60 +1 x64 +1 x68 +1 x72 +1 x76 +1 x80 +1 x84 +1 x88 +1 x92 +1 x96 +1 x100 +1 x104 +1 x108 +1 x112 >= 9;
-1 x40 -1 x44 -1 x48 -1 x52 -1 x56 -1 x60 -1 x64 -1 x68 -1 x72 -1 x76 -1 x80 -1 x84 -1 x88 -1 x92 -1 x96 -1 x100 -1 x104 -1 x108 -1 x112 >= -10;
+1 x41 +1 x45 +1 x49 +1 x53 +1 x57 +1 x61 +1 x65 +1 x69 +1 x73 +1 x77 +1 x81 +1 x85 +1 x89 +1 x93 +1 x97 +1 x101 +1 x105 +1 x109 +1 x113 >= 9;
-1 x41 -1 x45 -1 x49 -1 x53 -1 x57 -1 x61 -1 x65 -1 x69 -1 x73 -1 x77 -1 x81 -1 x85 -1 x89 -1 x93 -1 x97 -1 x101 -1 x105 -1 x109 -1 x113 >= -10;
+1 x42 +1 x46 +1 x50 +1 x54 +1 x58 +1 x62 +1 x66 +1 x70 +1 x74 +1 x78 +1 x82 +1 x86 +1 x90 +1 x94 +1 x98 +1 x102 +1 x106 +1 x110 +1 x114 >= 9;
-1 x42 -1 x46 -1 x50 -1 x54 -1 x58 -1 x62 -1 x66 -1 x70 -1 x74 -1 x78 -1 x82 -1 x86 -1 x90 -1 x94 -1 x98 -1 x102 -1 x106 -1 x110 -1 x114 >= -10;
+1 x43 +1 x47 +1 x51 +1 x55 +1 x59 +1 x63 +1 x67 +1 x71 +1 x75 +1 x79 +1 x83 +1 x87 +1 x91 +1 x95 +1 x99 +1 x103 +1 x107 +1 x111 +1 x115 >= 9;
-1 x43 -1 x47 -1 x51 -1 x55 -1 x59 -1 x63 -1 x67 -1 x71 -1 x75 -1 x79 -1 x83 -1 x87 -1 x91 -1 x95 -1 x99 -1 x103 -1 x107 -1 x111 -1 x115 >= -10;
+1 x44 +1 x48 +1 x52 +1 x56 +1 x60 +1 x64 +1 x68 +1 x72 +1 x76 +1 x80 +1 x84 +1 x88 +1 x92 +1 x96 +1 x100 +1 x104 +1 x108 +1 x112 +1 x116 >= 9;
-1 x44 -1 x48 -1 x52 -1 x56 -1 x60 -1 x64 -1 x68 -1 x72 -1 x76 -1 x80 -1 x84 -1 x88 -1 x92 -1 x96 -1 x100 -1 x104 -1 x108 -1 x112 -1 x116 >= -10;
+1 x45 +1 x49 +1 x53 +1 x57 +1 x61 +1 x65 +1 x69 +1 x73 +1 x77 +1 x81 +1 x85 +1 x89 +1 x93 +1 x97 +1 x101 +1 x105 +1 x109 +1 x113 +1 x117 >= 9;
-1 x45 -1 x49 -1 x53 -1 x57 -1 x61 -1 x65 -1 x69 -1 x73 -1 x77 -1 x81 -1 x85 -1 x89 -1 x93 -1 x97 -1 x101 -1 x105 -1 x109 -1 x113 -1 x117 >= -10;
+1 x46 +1 x50 +1 x54 +1 x58 +1 x62 +1 x66 +1 x70 +1 x74 +1 x78 +1 x82 +1 x86 +1 x90 +1 x94 +1 x98 +1 x102 +1 x106 +1 x110 +1 x114 +1 x118 >= 9;
-1 x46 -1 x50 -1 x54 -1 x58 -1 x62 -1 x66 -1 x70 -1 x74 -1 x78 -1 x82 -1 x86 -1 x90 -1 x94 -1 x98 -1 x102 -1 x106 -1 x110 -1 x114 -1 x118 >= -10;
+1 x47 +1 x51 +1 x55 +1 x59 +1 x63 +1 x67 +1 x71 +1 x75 +1 x79 +1 x83 +1 x87 +1 x91 +1 x95 +1 x99 +1 x103 +1 x107 +1 x111 +1 x115 +1 x119 >= 9;
-1 x47 -1 x51 -1 x55 -1 x59 -1 x63 -1 x67 -1 x71 -1 x75 -1 x79 -1 x83 -1 x87 -1 x91 -1 x95 -1 x99 -1 x103 -1 x107 -1 x111 -1 x115 -1 x119 >= -10;
+1 x48 +1 x52 +1 x56 +1 x60 +1 x64 +1 x68 +1 x72 +1 x76 +1 x80 +1 x84 +1 x88 +1 x92 +1 x96 +1 x100 +1 x104 +1 x108 +1 x112 +1 x116 +1 x120 >= 9;
-1 x48 -1 x52 -1 x56 -1 x60 -1 x64 -1 x68 -1 x72 -1 x76 -1 x80 -1 x84 -1 x88 -1 x92 -1 x96 -1 x100 -1 x104 -1 x108 -1 x112 -1 x116 -1 x120 >= -10;
+1 x49 +1 x53 +1 x57 +1 x61 +1 x65 +1 x69 +1 x73 +1 x77 +1 x81 +1 x85 +1 x89 +1 x93 +1 x97 +1 x101 +1 x105 +1 x109 +1 x113 +1 x117 +1 x121 >= 9;
-1 x49 -1 x53 -1 x57 -1 x61 -1 x65 -1 x69 -1 x73 -1 x77 -1 x81 -1 x85 -1 x89 -1 x93 -1 x97 -1 x101 -1 x105 -1 x109 -1 x113 -1 x117 -1 x121 >= -10;
+1 x50 +1 x54 +1 x58 +1 x62 +1 x66 +1 x70 +1 x74 +1 x78 +1 x82 +1 x86 +1 x90 +1 x94 +1 x98 +1 x102 +1 x106 +1 x110 +1 x114 +1 x118 +1 x122 >= 9;
-1 x50 -1 x54 -1 x58 -1 x62 -1 x66 -1 x70 -1 x74 -1 x78 -1 x82 -1 x86 -1 x90 -1 x94 -1 x98 -1 x102 -1 x106 -1 x110 -1 x114 -1 x118 -1 x122 >= -10;
+1 x51 +1 x55 +1 x59 +1 x63 +1 x67 +1 x71 +1 x75 +1 x79 +1 x83 +1 x87 +1 x91 +1 x95 +1 x99 +1 x103 +1 x107 +1 x111 +1 x115 +1 x119 +1 x123 >= 9;
-1 x51 -1 x55 -1 x59 -1 x63 -1 x67 -1 x71 -1 x75 -1 x79 -1 x83 -1 x87 -1 x91 -1 x95 -1 x99 -1 x103 -1 x107 -1 x111 -1 x115 -1 x119 -1 x123 >= -10;
+1 x52 +1 x56 +1 x60 +1 x64 +1 x68 +1 x72 +1 x76 +1 x80 +1 x84 +1 x88 +1 x92 +1 x96 +1 x100 +1 x104 +1 x108 +1 x112 +1 x116 +1 x120 +1 x124 >= 9;
-1 x52 -1 x56 -1 x60 -1 x64 -1 x68 -1 x72 -1 x76 -1 x80 -1 x84 -1 x88 -1 x92 -1 x96 -1 x100 -1 x104 -1 x108 -1 x112 -1 x116 -1 x120 -1 x124 >= -10;
+1 x53 +1 x57 +1 x61 +1 x65 +1 x69 +1 x73 +1 x77 +1 x81 +1 x85 +1 x89 +1 x93 +1 x97 +1 x101 +1 x105 +1 x109 +1 x113 +1 x117 +1 x121 +1 x125 >= 9;
-1 x53 -1 x57 -1 x61 -1 x65 -1 x69 -1 x73 -1 x77 -1 x81 -1 x85 -1 x89 -1 x93 -1 x97 -1 x101 -1 x105 -1 x109 -1 x113 -1 x117 -1 x121 -1 x125 >= -10;
+1 x54 +1 x58 +1 x62 +1 x66 +1 x70 +1 x74 +1 x78 +1 x82 +1 x86 +1 x90 +1 x94 +1 x98 +1 x102 +1 x106 +1 x110 +1 x114 +1 x118 +1 x122 +1 x126 >= 9;
-1 x54 -1 x58 -1 x62 -1 x66 -1 x70 -1 x74 -1 x78 -1 x82 -1 x86 -1 x90 -1 x94 -1 x98 -1 x102 -1 x106 -1 x110 -1 x114 -1 x118 -1 x122 -1 x126 >= -10;
+1 x55 +1 x59 +1 x63 +1 x67 +1 x71 +1 x75 +1 x79 +1 x83 +1 x87 +1 x91 +1 x95 +1 x99 +1 x103 +1 x107 +1 x111 +1 x115 +1 x119 +1 x123 +1 x127 >= 9;
-1 x55 -1 x59 -1 x63 -1 x67 -1 x71 -1 x75 -1 x79 -1 x83 -1 x87 -1 x91 -1 x95 -1 x99 -1 x103 -1 x107 -1 x111 -1 x115 -1 x119 -1 x123 -1 x127 >= -10;
+1 x56 +1 x60 +1 x64 +1 x68 +1 x72 +1 x76 +1 x80 +1 x84 +1 x88 +1 x92 +1 x96 +1 x100 +1 x104 +1 x108 +1 x112 +1 x116 +1 x120 +1 x124 +1 x128 >= 9;
-1 x56 -1 x60 -1 x64 -1 x68 -1 x72 -1 x76 -1 x80 -1 x84 -1 x88 -1 x92 -1 x96 -1 x100 -1 x104 -1 x108 -1 x112 -1 x116 -1 x120 -1 x124 -1 x128 >= -10;
+1 x57 +1 x61 +1 x65 +1 x69 +1 x73 +1 x77 +1 x81 +1 x85 +1 x89 +1 x93 +1 x97 +1 x101 +1 x105 +1 x109 +1 x113 +1 x117 +1 x121 +1 x125 +1 x129 >= 9;
-1 x57 -1 x61 -1 x65 -1 x69 -1 x73 -1 x77 -1 x81 -1 x85 -1 x89 -1 x93 -1 x97 -1 x101 -1 x105 -1 x109 -1 x113 -1 x117 -1 x121 -1 x125 -1 x129 >= -10;
+1 x58 +1 x62 +1 x66 +1 x70 +1 x74 +1 x78 +1 x82 +1 x86 +1 x90 +1 x94 +1 x98 +1 x102 +1 x106 +1 x110 +1 x114 +1 x118 +1 x122 +1 x126 +1 x130 >= 9;
-1 x58 -1 x62 -1 x66 -1 x70 -1 x74 -1 x78 -1 x82 -1 x86 -1 x90 -1 x94 -1 x98 -1 x102 -1 x106 -1 x110 -1 x114 -1 x118 -1 x122 -1 x126 -1 x130 >= -10;
+1 x59 +1 x63 +1 x67 +1 x71 +1 x75 +1 x79 +1 x83 +1 x87 +1 x91 +1 x95 +1 x99 +1 x103 +1 x107 +1 x111 +1 x115 +1 x119 +1 x123 +1 x127 +1 x131 >= 9;
-1 x59 -1 x63 -1 x67 -1 x71 -1 x75 -1 x79 -1 x83 -1 x87 -1 x91 -1 x95 -1 x99 -1 x103 -1 x107 -1 x111 -1 x115 -1 x119 -1 x123 -1 x127 -1 x131 >= -10;
+1 x60 +1 x64 +1 x68 +1 x72 +1 x76 +1 x80 +1 x84 +1 x88 +1 x92 +1 x96 +1 x100 +1 x104 +1 x108 +1 x112 +1 x116 +1 x120 +1 x124 +1 x128 +1 x132 >= 9;
-1 x60 -1 x64 -1 x68 -1 x72 -1 x76 -1 x80 -1 x84 -1 x88 -1 x92 -1 x96 -1 x100 -1 x104 -1 x108 -1 x112 -1 x116 -1 x120 -1 x124 -1 x128 -1 x132 >= -10;
+1 x61 +1 x65 +1 x69 +1 x73 +1 x77 +1 x81 +1 x85 +1 x89 +1 x93 +1 x97 +1 x101 +1 x105 +1 x109 +1 x113 +1 x117 +1 x121 +1 x125 +1 x129 +1 x133 >= 9;
-1 x61 -1 x65 -1 x69 -1 x73 -1 x77 -1 x81 -1 x85 -1 x89 -1 x93 -1 x97 -1 x101 -1 x105 -1 x109 -1 x113 -1 x117 -1 x121 -1 x125 -1 x129 -1 x133 >= -10;
+1 x62 +1 x66 +1 x70 +1 x74 +1 x78 +1 x82 +1 x86 +1 x90 +1 x94 +1 x98 +1 x102 +1 x106 +1 x110 +1 x114 +1 x118 +1 x122 +1 x126 +1 x130 +1 x134 >= 9;
-1 x62 -1 x66 -1 x70 -1 x74 -1 x78 -1 x82 -1 x86 -1 x90 -1 x94 -1 x98 -1 x102 -1 x106 -1 x110 -1 x114 -1 x118 -1 x122 -1 x126 -1 x130 -1 x134 >= -10;
+1 x63 +1 x67 +1 x71 +1 x75 +1 x79 +1 x83 +1 x87 +1 x91 +1 x95 +1 x99 +1 x103 +1 x107 +1 x111 +1 x115 +1 x119 +1 x123 +1 x127 +1 x131 +1 x135 >= 9;
-1 x63 -1 x67 -1 x71 -1 x75 -1 x79 -1 x83 -1 x87 -1 x91 -1 x95 -1 x99 -1 x103 -1 x107 -1 x111 -1 x115 -1 x119 -1 x123 -1 x127 -1 x131 -1 x135 >= -10;
+1 x64 +1 x68 +1 x72 +1 x76 +1 x80 +1 x84 +1 x88 +1 x92 +1 x96 +1 x100 +1 x104 +1 x108 +1 x112 +1 x116 +1 x120 +1 x124 +1 x128 +1 x132 +1 x136 >= 9;
-1 x64 -1 x68 -1 x72 -1 x76 -1 x80 -1 x84 -1 x88 -1 x92 -1 x96 -1 x100 -1 x104 -1 x108 -1 x112 -1 x116 -1 x120 -1 x124 -1 x128 -1 x132 -1 x136 >= -10;
+1 x65 +1 x69 +1 x73 +1 x77 +1 x81 +1 x85 +1 x89 +1 x93 +1 x97 +1 x101 +1 x105 +1 x109 +1 x113 +1 x117 +1 x121 +1 x125 +1 x129 +1 x133 +1 x137 >= 9;
-1 x65 -1 x69 -1 x73 -1 x77 -1 x81 -1 x85 -1 x89 -1 x93 -1 x97 -1 x101 -1 x105 -1 x109 -1 x113 -1 x117 -1 x121 -1 x125 -1 x129 -1 x133 -1 x137 >= -10;
+1 x66 +1 x70 +1 x74 +1 x78 +1 x82 +1 x86 +1 x90 +1 x94 +1 x98 +1 x102 +1 x106 +1 x110 +1 x114 +1 x118 +1 x122 +1 x126 +1 x130 +1 x134 +1 x138 >= 9;
-1 x66 -1 x70 -1 x74 -1 x78 -1 x82 -1 x86 -1 x90 -1 x94 -1 x98 -1 x102 -1 x106 -1 x110 -1 x114 -1 x118 -1 x122 -1 x126 -1 x130 -1 x134 -1 x138 >= -10;
+1 x67 +1 x71 +1 x75 +1 x79 +1 x83 +1 x87 +1 x91 +1 x95 +1 x99 +1 x103 +1 x107 +1 x111 +1 x115 +1 x119 +1 x123 +1 x127 +1 x131 +1 x135 +1 x139 >= 9;
-1 x67 -1 x71 -1 x75 -1 x79 -1 x83 -1 x87 -1 x91 -1 x95 -1 x99 -1 x103 -1 x107 -1 x111 -1 x115 -1 x119 -1 x123 -1 x127 -1 x131 -1 x135 -1 x139 >= -10;
+1 x68 +1 x72 +1 x76 +1 x80 +1 x84 +1 x88 +1 x92 +1 x96 +1 x100 +1 x104 +1 x108 +1 x112 +1 x116 +1 x120 +1 x124 +1 x128 +1 x132 +1 x136 +1 x140 >= 9;
-1 x68 -1 x72 -1 x76 -1 x80 -1 x84 -1 x88 -1 x92 -1 x96 -1 x100 -1 x104 -1 x108 -1 x112 -1 x116 -1 x120 -1 x124 -1 x128 -1 x132 -1 x136 -1 x140 >= -10;
+1 x69 +1 x73 +1 x77 +1 x81 +1 x85 +1 x89 +1 x93 +1 x97 +1 x101 +1 x105 +1 x109 +1 x113 +1 x117 +1 x121 +1 x125 +1 x129 +1 x133 +1 x137 +1 x141 >= 9;
-1 x69 -1 x73 -1 x77 -1 x81 -1 x85 -1 x89 -1 x93 -1 x97 -1 x101 -1 x105 -1 x109 -1 x113 -1 x117 -1 x121 -1 x125 -1 x129 -1 x133 -1 x137 -1 x141 >= -10;
+1 x70 +1 x74 +1 x78 +1 x82 +1 x86 +1 x90 +1 x94 +1 x98 +1 x102 +1 x106 +1 x110 +1 x114 +1 x118 +1 x122 +1 x126 +1 x130 +1 x134 +1 x138 +1 x142 >= 9;
-1 x70 -1 x74 -1 x78 -1 x82 -1 x86 -1 x90 -1 x94 -1 x98 -1 x102 -1 x106 -1 x110 -1 x114 -1 x118 -1 x122 -1 x126 -1 x130 -1 x134 -1 x138 -1 x142 >= -10;
+1 x71 +1 x75 +1 x79 +1 x83 +1 x87 +1 x91 +1 x95 +1 x99 +1 x103 +1 x107 +1 x111 +1 x115 +1 x119 +1 x123 +1 x127 +1 x131 +1 x135 +1 x139 +1 x143 >= 9;
-1 x71 -1 x75 -1 x79 -1 x83 -1 x87 -1 x91 -1 x95 -1 x99 -1 x103 -1 x107 -1 x111 -1 x115 -1 x119 -1 x123 -1 x127 -1 x131 -1 x135 -1 x139 -1 x143 >= -10;
+1 x72 +1 x76 +1 x80 +1 x84 +1 x88 +1 x92 +1 x96 +1 x100 +1 x104 +1 x108 +1 x112 +1 x116 +1 x120 +1 x124 +1 x128 +1 x132 +1 x136 +1 x140 +1 x144 >= 9;
-1 x72 -1 x76 -1 x80 -1 x84 -1 x88 -1 x92 -1 x96 -1 x100 -1 x104 -1 x108 -1 x112 -1 x116 -1 x120 -1 x124 -1 x128 -1 x132 -1 x136 -1 x140 -1 x144 >= -10;
+1 x73 +1 x77 +1 x81 +1 x85 +1 x89 +1 x93 +1 x97 +1 x101 +1 x105 +1 x109 +1 x113 +1 x117 +1 x121 +1 x125 +1 x129 +1 x133 +1 x137 +1 x141 +1 x145 >= 9;
-1 x73 -1 x77 -1 x81 -1 x85 -1 x89 -1 x93 -1 x97 -1 x101 -1 x105 -1 x109 -1 x113 -1 x117 -1 x121 -1 x125 -1 x129 -1 x133 -1 x137 -1 x141 -1 x145 >= -10;
+1 x74 +1 x78 +1 x82 +1 x86 +1 x90 +1 x94 +1 x98 +1 x102 +1 x106 +1 x110 +1 x114 +1 x118 +1 x122 +1 x126 +1 x130 +1 x134 +1 x138 +1 x142 +1 x146 >= 9;
-1 x74 -1 x78 -1 x82 -1 x86 -1 x90 -1 x94 -1 x98 -1 x102 -1 x106 -1 x110 -1 x114 -1 x118 -1 x122 -1 x126 -1 x130 -1 x134 -1 x138 -1 x142 -1 x146 >= -10;
+1 x75 +1 x79 +1 x83 +1 x87 +1 x91 +1 x95 +1 x99 +1 x103 +1 x107 +1 x111 +1 x115 +1 x119 +1 x123 +1 x127 +1 x131 +1 x135 +1 x139 +1 x143 +1 x147 >= 9;
-1 x75 -1 x79 -1 x83 -1 x87 -1 x91 -1 x95 -1 x99 -1 x103 -1 x107 -1 x111 -1 x115 -1 x119 -1 x123 -1 x127 -1 x131 -1 x135 -1 x139 -1 x143 -1 x147 >= -10;
+1 x76 +1 x80 +1 x84 +1 x88 +1 x92 +1 x96 +1 x100 +1 x104 +1 x108 +1 x112 +1 x116 +1 x120 +1 x124 +1 x128 +1 x132 +1 x136 +1 x140 +1 x144 +1 x148 >= 9;
-1 x76 -1 x80 -1 x84 -1 x88 -1 x92 -1 x96 -1 x100 -1 x104 -1 x108 -1 x112 -1 x116 -1 x120 -1 x124 -1 x128 -1 x132 -1 x136 -1 x140 -1 x144 -1 x148 >= -10;
+1 x77 +1 x81 +1 x85 +1 x89 +1 x93 +1 x97 +1 x101 +1 x105 +1 x109 +1 x113 +1 x117 +1 x121 +1 x125 +1 x129 +1 x133 +1 x137 +1 x141 +1 x145 +1 x149 >= 9;
-1 x77 -1 x81 -1 x85 -1 x89 -1 x93 -1 x97 -1 x101 -1 x105 -1 x109 -1 x113 -1 x117 -1 x121 -1 x125 -1 x129 -1 x133 -1 x137 -1 x141 -1 x145 -1 x149 >= -10;
+1 x78 +1 x82 +1 x86 +1 x90 +1 x94 +1 x98 +1 x102 +1 x106 +1 x110 +1 x114 +1 x118 +1 x122 +1 x126 +1 x130 +1 x134 +1 x138 +1 x142 +1 x146 +1 x150 >= 9;
-1 x78 -1 x82 -1 x86 -1 x90 -1 x94 -1 x98 -1 x102 -1 x106 -1 x110 -1 x114 -1 x118 -1 x122 -1 x126 -1 x130 -1 x134 -1 x138 -1 x142 -1 x146 -1 x150 >= -10;
+1 x79 +1 x83 +1 x87 +1 x91 +1 x95 +1 x99 +1 x103 +1 x107 +1 x111 +1 x115 +1 x119 +1 x123 +1 x127 +1 x131 +1 x135 +1 x139 +1 x143 +1 x147 +1 x151 >= 9;
-1 x79 -1 x83 -1 x87 -1 x91 -1 x95 -1 x99 -1 x103 -1 x107 -1 x111 -1 x115 -1 x119 -1 x123 -1 x127 -1 x131 -1 x135 -1 x139 -1 x143 -1 x147 -1 x151 >= -10;
+1 x80 +1 x84 +1 x88 +1 x92 +1 x96 +1 x100 +1 x104 +1 x108 +1 x112 +1 x116 +1 x120 +1 x124 +1 x128 +1 x132 +1 x136 +1 x140 +1 x144 +1 x148 +1 x152 >= 9;
-1 x80 -1 x84 -1 x88 -1 x92 -1 x96 -1 x100 -1 x104 -1 x108 -1 x112 -1 x116 -1 x120 -1 x124 -1 x128 -1 x132 -1 x136 -1 x140 -1 x144 -1 x148 -1 x152 >= -10;
+1 x81 +1 x85 +1 x89 +1 x93 +1 x97 +1 x101 +1 x105 +1 x109 +1 x113 +1 x117 +1 x121 +1 x125 +1 x129 +1 x133 +1 x137 +1 x141 +1 x145 +1 x149 +1 x153 >= 9;
-1 x81 -1 x85 -1 x89 -1 x93 -1 x97 -1 x101 -1 x105 -1 x109 -1 x113 -1 x117 -1 x121 -1 x125 -1 x129 -1 x133 -1 x137 -1 x141 -1 x145 -1 x149 -1 x153 >= -10;
+1 x82 +1 x86 +1 x90 +1 x94 +1 x98 +1 x102 +1 x106 +1 x110 +1 x114 +1 x118 +1 x122 +1 x126 +1 x130 +1 x134 +1 x138 +1 x142 +1 x146 +1 x150 +1 x154 >= 9;
-1 x82 -1 x86 -1 x90 -1 x94 -1 x98 -1 x102 -1 x106 -1 x110 -1 x114 -1 x118 -1 x122 -1 x126 -1 x130 -1 x134 -1 x138 -1 x142 -1 x146 -1 x150 -1 x154 >= -10;
+1 x83 +1 x87 +1 x91 +1 x95 +1 x99 +1 x103 +1 x107 +1 x111 +1 x115 +1 x119 +1 x123 +1 x127 +1 x131 +1 x135 +1 x139 +1 x143 +1 x147 +1 x151 +1 x155 >= 9;
-1 x83 -1 x87 -1 x91 -1 x95 -1 x99 -1 x103 -1 x107 -1 x111 -1 x115 -1 x119 -1 x123 -1 x127 -1 x131 -1 x135 -1 x139 -1 x143 -1 x147 -1 x151 -1 x155 >= -10;
+1 x84 +1 x88 +1 x92 +1 x96 +1 x100 +1 x104 +1 x108 +1 x112 +1 x116 +1 x120 +1 x124 +1 x128 +1 x132 +1 x136 +1 x140 +1 x144 +1 x148 +1 x152 +1 x156 >= 9;
-1 x84 -1 x88 -1 x92 -1 x96 -1 x100 -1 x104 -1 x108 -1 x112 -1 x116 -1 x120 -1 x124 -1 x128 -1 x132 -1 x136 -1 x140 -1 x144 -1 x148 -1 x152 -1 x156 >= -10;
+1 x85 +1 x89 +1 x93 +1 x97 +1 x101 +1 x105 +1 x109 +1 x113 +1 x117 +1 x121 +1 x125 +1 x129 +1 x133 +1 x137 +1 x141 +1 x145 +1 x149 +1 x153 +1 x157 >= 9;
-1 x85 -1 x89 -1 x93 -1 x97 -1 x101 -1 x105 -1 x109 -1 x113 -1 x117 -1 x121 -1 x125 -1 x129 -1 x133 -1 x137 -1 x141 -1 x145 -1 x149 -1 x153 -1 x157 >= -10;
+1 x86 +1 x90 +1 x94 +1 x98 +1 x102 +1 x106 +1 x110 +1 x114 +1 x118 +1 x122 +1 x126 +1 x130 +1 x134 +1 x138 +1 x142 +1 x146 +1 x150 +1 x154 +1 x158 >= 9;
-1 x86 -1 x90 -1 x94 -1 x98 -1 x102 -1 x106 -1 x110 -1 x114 -1 x118 -1 x122 -1 x126 -1 x130 -1 x134 -1 x138 -1 x142 -1 x146 -1 x150 -1 x154 -1 x158 >= -10;
+1 x87 +1 x91 +1 x95 +1 x99 +1 x103 +1 x107 +1 x111 +1 x115 +1 x119 +1 x123 +1 x127 +1 x131 +1 x135 +1 x139 +1 x143 +1 x147 +1 x151 +1 x155 +1 x159 >= 9;
-1 x87 -1 x91 -1 x95 -1 x99 -1 x103 -1 x107 -1 x111 -1 x115 -1 x119 -1 x123 -1 x127 -1 x131 -1 x135 -1 x139 -1 x143 -1 x147 -1 x151 -1 x155 -1 x159 >= -10;
+1 x88 +1 x92 +1 x96 +1 x100 +1 x104 +1 x108 +1 x112 +1 x116 +1 x120 +1 x124 +1 x128 +1 x132 +1 x136 +1 x140 +1 x144 +1 x148 +1 x152 +1 x156 +1 x160 >= 9;
-1 x88 -1 x92 -1 x96 -1 x100 -1 x104 -1 x108 -1 x112 -1 x116 -1 x120 -1 x124 -1 x128 -1 x132 -1 x136 -1 x140 -1 x144 -1 x148 -1 x152 -1 x156 -1 x160 >= -10;
+1 x89 +1 x93 +1 x97 +1 x101 +1 x105 +1 x109 +1 x113 +1 x117 +1 x121 +1 x125 +1 x129 +1 x133 +1 x137 +1 x141 +1 x145 +1 x149 +1 x153 +1 x157 +1 x161 >= 9;
-1 x89 -1 x93 -1 x97 -1 x101 -1 x105 -1 x109 -1 x113 -1 x117 -1 x121 -1 x125 -1 x129 -1 x133 -1 x137 -1 x141 -1 x145 -1 x149 -1 x153 -1 x157 -1 x161 >= -10;
+1 x90 +1 x94 +1 x98 +1 x102 +1 x106 +1 x110 +1 x114 +1 x118 +1 x122 +1 x126 +1 x130 +1 x134 +1 x138 +1 x142 +1 x146 +1 x150 +1 x154 +1 x158 +1 x162 >= 9;
-1 x90 -1 x94 -1 x98 -1 x102 -1 x106 -1 x110 -1 x114 -1 x118 -1 x122 -1 x126 -1 x130 -1 x134 -1 x138 -1 x142 -1 x146 -1 x150 -1 x154 -1 x158 -1 x162 >= -10;
+1 x91 +1 x95 +1 x99 +1 x103 +1 x107 +1 x111 +1 x115 +1 x119 +1 x123 +1 x127 +1 x131 +1 x135 +1 x139 +1 x143 +1 x147 +1 x151 +1 x155 +1 x159 +1 x163 >= 9;
-1 x91 -1 x95 -1 x99 -1 x103 -1 x107 -1 x111 -1 x115 -1 x119 -1 x123 -1 x127 -1 x131 -1 x135 -1 x139 -1 x143 -1 x147 -1 x151 -1 x155 -1 x159 -1 x163 >= -10;
+1 x92 +1 x96 +1 x100 +1 x104 +1 x108 +1 x112 +1 x116 +1 x120 +1 x124 +1 x128 +1 x132 +1 x136 +1 x140 +1 x144 +1 x148 +1 x152 +1 x156 +1 x160 +1 x164 >= 9;
-1 x92 -1 x96 -1 x100 -1 x104 -1 x108 -1 x112 -1 x116 -1 x120 -1 x124 -1 x128 -1 x132 -1 x136 -1 x140 -1 x144 -1 x148 -1 x152 -1 x156 -1 x160 -1 x164 >= -10;
+1 x93 +1 x97 +1 x101 +1 x105 +1 x109 +1 x113 +1 x117 +1 x121 +1 x125 +1 x129 +1 x133 +1 x137 +1 x141 +1 x145 +1 x149 +1 x153 +1 x157 +1 x161 +1 x165 >= 9;
-1 x93 -1 x97 -1 x101 -1 x105 -1 x109 -1 x113 -1 x117 -1 x121 -1 x125 -1 x129 -1 x133 -1 x137 -1 x141 -1 x145 -1 x149 -1 x153 -1 x157 -1 x161 -1 x165 >= -10;
+1 x94 +1 x98 +1 x102 +1 x106 +1 x110 +1 x114 +1 x118 +1 x122 +1 x126 +1 x130 +1 x134 +1 x138 +1 x142 +1 x146 +1 x150 +1 x154 +1 x158 +1 x162 +1 x166 >= 9;
-1 x94 -1 x98 -1 x102 -1 x106 -1 x110 -1 x114 -1 x118 -1 x122 -1 x126 -1 x130 -1 x134 -1 x138 -1 x142 -1 x146 -1 x150 -1 x154 -1 x158 -1 x162 -1 x166 >= -10;
+1 x95 +1 x99 +1 x103 +1 x107 +1 x111 +1 x115 +1 x119 +1 x123 +1 x127 +1 x131 +1 x135 +1 x139 +1 x143 +1 x147 +1 x151 +1 x155 +1 x159 +1 x163 +1 x167 >= 9;
-1 x95 -1 x99 -1 x103 -1 x107 -1 x111 -1 x115 -1 x119 -1 x123 -1 x127 -1 x131 -1 x135 -1 x139 -1 x143 -1 x147 -1 x151 -1 x155 -1 x159 -1 x163 -1 x167 >= -10;
+1 x96 +1 x100 +1 x104 +1 x108 +1 x112 +1 x116 +1 x120 +1 x124 +1 x128 +1 x132 +1 x136 +1 x140 +1 x144 +1 x148 +1 x152 +1 x156 +1 x160 +1 x164 +1 x168 >= 9;
-1 x96 -1 x100 -1 x104 -1 x108 -1 x112 -1 x116 -1 x120 -1 x124 -1 x128 -1 x132 -1 x136 -1 x140 -1 x144 -1 x148 -1 x152 -1 x156 -1 x160 -1 x164 -1 x168 >= -10;
+1 x97 +1 x101 +1 x105 +1 x109 +1 x113 +1 x117 +1 x121 +1 x125 +1 x129 +1 x133 +1 x137 +1 x141 +1 x145 +1 x149 +1 x153 +1 x157 +1 x161 +1 x165 +1 x169 >= 9;
-1 x97 -1 x101 -1 x105 -1 x109 -1 x113 -1 x117 -1 x121 -1 x125 -1 x129 -1 x133 -1 x137 -1 x141 -1 x145 -1 x149 -1 x153 -1 x157 -1 x161 -1 x165 -1 x169 >= -10;
+1 x98 +1 x102 +1 x106 +1 x110 +1 x114 +1 x118 +1 x122 +1 x126 +1 x130 +1 x134 +1 x138 +1 x142 +1 x146 +1 x150 +1 x154 +1 x158 +1 x162 +1 x166 +1 x170 >= 9;
-1 x98 -1 x102 -1 x106 -1 x110 -1 x114 -1 x118 -1 x122 -1 x126 -1 x130 -1 x134 -1 x138 -1 x142 -1 x146 -1 x150 -1 x154 -1 x158 -1 x162 -1 x166 -1 x170 >= -10;
+1 x99 +1 x103 +1 x107 +1 x111 +1 x115 +1 x119 +1 x123 +1 x127 +1 x131 +1 x135 +1 x139 +1 x143 +1 x147 +1 x151 +1 x155 +1 x159 +1 x163 +1 x167 +1 x171 >= 9;
-1 x99 -1 x103 -1 x107 -1 x111 -1 x115 -1 x119 -1 x123 -1 x127 -1 x131 -1 x135 -1 x139 -1 x143 -1 x147 -1 x151 -1 x155 -1 x159 -1 x163 -1 x167 -1 x171 >= -10;
+1 x100 +1 x104 +1 x108 +1 x112 +1 x116 +1 x120 +1 x124 +1 x128 +1 x132 +1 x136 +1 x140 +1 x144 +1 x148 +1 x152 +1 x156 +1 x160 +1 x164 +1 x168 +1 x172 >= 9;
-1 x100 -1 x104 -1 x108 -1 x112 -1 x116 -1 x120 -1 x124 -1 x128 -1 x132 -1 x136 -1 x140 -1 x144 -1 x148 -1 x152 -1 x156 -1 x160 -1 x164 -1 x168 -1 x172 >= -10;
+1 x101 +1 x105 +1 x109 +1 x113 +1 x117 +1 x121 +1 x125 +1 x129 +1 x133 +1 x137 +1 x141 +1 x145 +1 x149 +1 x153 +1 x157 +1 x161 +1 x165 +1 x169 +1 x173 >= 9;
-1 x101 -1 x105 -1 x109 -1 x113 -1 x117 -1 x121 -1 x125 -1 x129 -1 x133 -1 x137 -1 x141 -1 x145 -1 x149 -1 x153 -1 x157 -1 x161 -1 x165 -1 x169 -1 x173 >= -10;
+1 x102 +1 x106 +1 x110 +1 x114 +1 x118 +1 x122 +1 x126 +1 x130 +1 x134 +1 x138 +1 x142 +1 x146 +1 x150 +1 x154 +1 x158 +1 x162 +1 x166 +1 x170 +1 x174 >= 9;
-1 x102 -1 x106 -1 x110 -1 x114 -1 x118 -1 x122 -1 x126 -1 x130 -1 x134 -1 x138 -1 x142 -1 x146 -1 x150 -1 x154 -1 x158 -1 x162 -1 x166 -1 x170 -1 x174 >= -10;
+1 x103 +1 x107 +1 x111 +1 x115 +1 x119 +1 x123 +1 x127 +1 x131 +1 x135 +1 x139 +1 x143 +1 x147 +1 x151 +1 x155 +1 x159 +1 x163 +1 x167 +1 x171 +1 x175 >= 9;
-1 x103 -1 x107 -1 x111 -1 x115 -1 x119 -1 x123 -1 x127 -1 x131 -1 x135 -1 x139 -1 x143 -1 x147 -1 x151 -1 x155 -1 x159 -1 x163 -1 x167 -1 x171 -1 x175 >= -10;
+1 x104 +1 x108 +1 x112 +1 x116 +1 x120 +1 x124 +1 x128 +1 x132 +1 x136 +1 x140 +1 x144 +1 x148 +1 x152 +1 x156 +1 x160 +1 x164 +1 x168 +1 x172 +1 x176 >= 9;
-1 x104 -1 x108 -1 x112 -1 x116 -1 x120 -1 x124 -1 x128 -1 x132 -1 x136 -1 x140 -1 x144 -1 x148 -1 x152 -1 x156 -1 x160 -1 x164 -1 x168 -1 x172 -1 x176 >= -10;
+1 x105 +1 x109 +1 x113 +1 x117 +1 x121 +1 x125 +1 x129 +1 x133 +1 x137 +1 x141 +1 x145 +1 x149 +1 x153 +1 x157 +1 x161 +1 x165 +1 x169 +1 x173 +1 x177 >= 9;
-1 x105 -1 x109 -1 x113 -1 x117 -1 x121 -1 x125 -1 x129 -1 x133 -1 x137 -1 x141 -1 x145 -1 x149 -1 x153 -1 x157 -1 x161 -1 x165 -1 x169 -1 x173 -1 x177 >= -10;
+1 x106 +1 x110 +1 x114 +1 x118 +1 x122 +1 x126 +1 x130 +1 x134 +1 x138 +1 x142 +1 x146 +1 x150 +1 x154 +1 x158 +1 x162 +1 x166 +1 x170 +1 x174 +1 x178 >= 9;
-1 x106 -1 x110 -1 x114 -1 x118 -1 x122 -1 x126 -1 x130 -1 x134 -1 x138 -1 x142 -1 x146 -1 x150 -1 x154 -1 x158 -1 x162 -1 x166 -1 x170 -1 x174 -1 x178 >= -10;
+1 x107 +1 x111 +1 x115 +1 x119 +1 x123 +1 x127 +1 x131 +1 x135 +1 x139 +1 x143 +1 x147 +1 x151 +1 x155 +1 x159 +1 x163 +1 x167 +1 x171 +1 x175 +1 x179 >= 9;
-1 x107 -1 x111 -1 x115 -1 x119 -1 x123 -1 x127 -1 x131 -1 x135 -1 x139 -1 x143 -1 x147 -1 x151 -1 x155 -1 x159 -1 x163 -1 x167 -1 x171 -1 x175 -1 x179 >= -10;
+1 x108 +1 x112 +1 x116 +1 x120 +1 x124 +1 x128 +1 x132 +1 x136 +1 x140 +1 x144 +1 x148 +1 x152 +1 x156 +1 x160 +1 x164 +1 x168 +1 x172 +1 x176 +1 x180 >= 9;
-1 x108 -1 x112 -1 x116 -1 x120 -1 x124 -1 x128 -1 x132 -1 x136 -1 x140 -1 x144 -1 x148 -1 x152 -1 x156 -1 x160 -1 x164 -1 x168 -1 x172 -1 x176 -1 x180 >= -10;
+1 x109 +1 x113 +1 x117 +1 x121 +1 x125 +1 x129 +1 x133 +1 x137 +1 x141 +1 x145 +1 x149 +1 x153 +1 x157 +1 x161 +1 x165 +1 x169 +1 x173 +1 x177 +1 x181 >= 9;
-1 x109 -1 x113 -1 x117 -1 x121 -1 x125 -1 x129 -1 x133 -1 x137 -1 x141 -1 x145 -1 x149 -1 x153 -1 x157 -1 x161 -1 x165 -1 x169 -1 x173 -1 x177 -1 x181 >= -10;
+1 x110 +1 x114 +1 x118 +1 x122 +1 x126 +1 x130 +1 x134 +1 x138 +1 x142 +1 x146 +1 x150 +1 x154 +1 x158 +1 x162 +1 x166 +1 x170 +1 x174 +1 x178 +1 x182 >= 9;
-1 x110 -1 x114 -1 x118 -1 x122 -1 x126 -1 x130 -1 x134 -1 x138 -1 x142 -1 x146 -1 x150 -1 x154 -1 x158 -1 x162 -1 x166 -1 x170 -1 x174 -1 x178 -1 x182 >= -10;
+1 x111 +1 x115 +1 x119 +1 x123 +1 x127 +1 x131 +1 x135 +1 x139 +1 x143 +1 x147 +1 x151 +1 x155 +1 x159 +1 x163 +1 x167 +1 x171 +1 x175 +1 x179 +1 x183 >= 9;
-1 x111 -1 x115 -1 x119 -1 x123 -1 x127 -1 x131 -1 x135 -1 x139 -1 x143 -1 x147 -1 x151 -1 x155 -1 x159 -1 x163 -1 x167 -1 x171 -1 x175 -1 x179 -1 x183 >= -10;
+1 x112 +1 x116 +1 x120 +1 x124 +1 x128 +1 x132 +1 x136 +1 x140 +1 x144 +1 x148 +1 x152 +1 x156 +1 x160 +1 x164 +1 x168 +1 x172 +1 x176 +1 x180 +1 x184 >= 9;
-1 x112 -1 x116 -1 x120 -1 x124 -1 x128 -1 x132 -1 x136 -1 x140 -1 x144 -1 x148 -1 x152 -1 x156 -1 x160 -1 x164 -1 x168 -1 x172 -1 x176 -1 x180 -1 x184 >= -10;
+1 x113 +1 x117 +1 x121 +1 x125 +1 x129 +1 x133 +1 x137 +1 x141 +1 x145 +1 x149 +1 x153 +1 x157 +1 x161 +1 x165 +1 x169 +1 x173 +1 x177 +1 x181 +1 x185 >= 9;
-1 x113 -1 x117 -1 x121 -1 x125 -1 x129 -1 x133 -1 x137 -1 x141 -1 x145 -1 x149 -1 x153 -1 x157 -1 x161 -1 x165 -1 x169 -1 x173 -1 x177 -1 x181 -1 x185 >= -10;
+1 x114 +1 x118 +1 x122 +1 x126 +1 x130 +1 x134 +1 x138 +1 x142 +1 x146 +1 x150 +1 x154 +1 x158 +1 x162 +1 x166 +1 x170 +1 x174 +1 x178 +1 x182 +1 x186 >= 9;
-1 x114 -1 x118 -1 x122 -1 x126 -1 x130 -1 x134 -1 x138 -1 x142 -1 x146 -1 x150 -1 x154 -1 x158 -1 x162 -1 x166 -1 x170 -1 x174 -1 x178 -1 x182 -1 x186 >= -10;
+1 x115 +1 x119 +1 x123 +1 x127 +1 x131 +1 x135 +1 x139 +1 x143 +1 x147 +1 x151 +1 x155 +1 x159 +1 x163 +1 x167 +1 x171 +1 x175 +1 x179 +1 x183 +1 x187 >= 9;
-1 x115 -1 x119 -1 x123 -1 x127 -1 x131 -1 x135 -1 x139 -1 x143 -1 x147 -1 x151 -1 x155 -1 x159 -1 x163 -1 x167 -1 x171 -1 x175 -1 x179 -1 x183 -1 x187 >= -10;
+1 x116 +1 x120 +1 x124 +1 x128 +1 x132 +1 x136 +1 x140 +1 x144 +1 x148 +1 x152 +1 x156 +1 x160 +1 x164 +1 x168 +1 x172 +1 x176 +1 x180 +1 x184 +1 x188 >= 9;
-1 x116 -1 x120 -1 x124 -1 x128 -1 x132 -1 x136 -1 x140 -1 x144 -1 x148 -1 x152 -1 x156 -1 x160 -1 x164 -1 x168 -1 x172 -1 x176 -1 x180 -1 x184 -1 x188 >= -10;
+1 x117 +1 x121 +1 x125 +1 x129 +1 x133 +1 x137 +1 x141 +1 x145 +1 x149 +1 x153 +1 x157 +1 x161 +1 x165 +1 x169 +1 x173 +1 x177 +1 x181 +1 x185 +1 x189 >= 9;
-1 x117 -1 x121 -1 x125 -1 x129 -1 x133 -1 x137 -1 x141 -1 x145 -1 x149 -1 x153 -1 x157 -1 x161 -1 x165 -1 x169 -1 x173 -1 x177 -1 x181 -1 x185 -1 x189 >= -10;
+1 x118 +1 x122 +1 x126 +1 x130 +1 x134 +1 x138 +1 x142 +1 x146 +1 x150 +1 x154 +1 x158 +1 x162 +1 x166 +1 x170 +1 x174 +1 x178 +1 x182 +1 x186 +1 x190 >= 9;
-1 x118 -1 x122 -1 x126 -1 x130 -1 x134 -1 x138 -1 x142 -1 x146 -1 x150 -1 x154 -1 x158 -1 x162 -1 x166 -1 x170 -1 x174 -1 x178 -1 x182 -1 x186 -1 x190 >= -10;
+1 x119 +1 x123 +1 x127 +1 x131 +1 x135 +1 x139 +1 x143 +1 x147 +1 x151 +1 x155 +1 x159 +1 x163 +1 x167 +1 x171 +1 x175 +1 x179 +1 x183 +1 x187 +1 x191 >= 9;
-1 x119 -1 x123 -1 x127 -1 x131 -1 x135 -1 x139 -1 x143 -1 x147 -1 x151 -1 x155 -1 x159 -1 x163 -1 x167 -1 x171 -1 x175 -1 x179 -1 x183 -1 x187 -1 x191 >= -10;
+1 x120 +1 x124 +1 x128 +1 x132 +1 x136 +1 x140 +1 x144 +1 x148 +1 x152 +1 x156 +1 x160 +1 x164 +1 x168 +1 x172 +1 x176 +1 x180 +1 x184 +1 x188 +1 x192 >= 9;
-1 x120 -1 x124 -1 x128 -1 x132 -1 x136 -1 x140 -1 x144 -1 x148 -1 x152 -1 x156 -1 x160 -1 x164 -1 x168 -1 x172 -1 x176 -1 x180 -1 x184 -1 x188 -1 x192 >= -10;
+1 x121 +1 x125 +1 x129 +1 x133 +1 x137 +1 x141 +1 x145 +1 x149 +1 x153 +1 x157 +1 x161 +1 x165 +1 x169 +1 x173 +1 x177 +1 x181 +1 x185 +1 x189 +1 x193 >= 9;
-1 x121 -1 x125 -1 x129 -1 x133 -1 x137 -1 x141 -1 x145 -1 x149 -1 x153 -1 x157 -1 x161 -1 x165 -1 x169 -1 x173 -1 x177 -1 x181 -1 x185 -1 x189 -1 x193 >= -10;
+1 x122 +1 x126 +1 x130 +1 x134 +1 x138 +1 x142 +1 x146 +1 x150 +1 x154 +1 x158 +1 x162 +1 x166 +1 x170 +1 x174 +1 x178 +1 x182 +1 x186 +1 x190 +1 x194 >= 9;
-1 x122 -1 x126 -1 x130 -1 x134 -1 x138 -1 x142 -1 x146 -1 x150 -1 x154 -1 x158 -1 x162 -1 x166 -1 x170 -1 x174 -1 x178 -1 x182 -1 x186 -1 x190 -1 x194 >= -10;
+1 x123 +1 x127 +1 x131 +1 x135 +1 x139 +1 x143 +1 x147 +1 x151 +1 x155 +1 x159 +1 x163 +1 x167 +1 x171 +1 x175 +1 x179 +1 x183 +1 x187 +1 x191 +1 x195 >= 9;
-1 x123 -1 x127 -1 x131 -1 x135 -1 x139 -1 x143 -1 x147 -1 x151 -1 x155 -1 x159 -1 x163 -1 x167 -1 x171 -1 x175 -1 x179 -1 x183 -1 x187 -1 x191 -1 x195 >= -10;
+1 x124 +1 x128 +1 x132 +1 x136 +1 x140 +1 x144 +1 x148 +1 x152 +1 x156 +1 x160 +1 x164 +1 x168 +1 x172 +1 x176 +1 x180 +1 x184 +1 x188 +1 x192 +1 x196 >= 9;
-1 x124 -1 x128 -1 x132 -1 x136 -1 x140 -1 x144 -1 x148 -1 x152 -1 x156 -1 x160 -1 x164 -1 x168 -1 x172 -1 x176 -1 x180 -1 x184 -1 x188 -1 x192 -1 x196 >= -10;
+1 x125 +1 x129 +1 x133 +1 x137 +1 x141 +1 x145 +1 x149 +1 x153 +1 x157 +1 x161 +1 x165 +1 x169 +1 x173 +1 x177 +1 x181 +1 x185 +1 x189 +1 x193 +1 x197 >= 9;
-1 x125 -1 x129 -1 x133 -1 x137 -1 x141 -1 x145 -1 x149 -1 x153 -1 x157 -1 x161 -1 x165 -1 x169 -1 x173 -1 x177 -1 x181 -1 x185 -1 x189 -1 x193 -1 x197 >= -10;
+1 x126 +1 x130 +1 x134 +1 x138 +1 x142 +1 x146 +1 x150 +1 x154 +1 x158 +1 x162 +1 x166 +1 x170 +1 x174 +1 x178 +1 x182 +1 x186 +1 x190 +1 x194 +1 x198 >= 9;
-1 x126 -1 x130 -1 x134 -1 x138 -1 x142 -1 x146 -1 x150 -1 x154 -1 x158 -1 x162 -1 x166 -1 x170 -1 x174 -1 x178 -1 x182 -1 x186 -1 x190 -1 x194 -1 x198 >= -10;
+1 x127 +1 x131 +1 x135 +1 x139 +1 x143 +1 x147 +1 x151 +1 x155 +1 x159 +1 x163 +1 x167 +1 x171 +1 x175 +1 x179 +1 x183 +1 x187 +1 x191 +1 x195 +1 x199 >= 9;
-1 x127 -1 x131 -1 x135 -1 x139 -1 x143 -1 x147 -1 x151 -1 x155 -1 x159 -1 x163 -1 x167 -1 x171 -1 x175 -1 x179 -1 x183 -1 x187 -1 x191 -1 x195 -1 x199 >= -10;
+1 x128 +1 x132 +1 x136 +1 x140 +1 x144 +1 x148 +1 x152 +1 x156 +1 x160 +1 x164 +1 x168 +1 x172 +1 x176 +1 x180 +1 x184 +1 x188 +1 x192 +1 x196 +1 x200 >= 9;
-1 x128 -1 x132 -1 x136 -1 x140 -1 x144 -1 x148 -1 x152 -1 x156 -1 x160 -1 x164 -1 x168 -1 x172 -1 x176 -1 x180 -1 x184 -1 x188 -1 x192 -1 x196 -1 x200 >= -10;
+1 x129 +1 x133 +1 x137 +1 x141 +1 x145 +1 x149 +1 x153 +1 x157 +1 x161 +1 x165 +1 x169 +1 x173 +1 x177 +1 x181 +1 x185 +1 x189 +1 x193 +1 x197 +1 x201 >= 9;
-1 x129 -1 x133 -1 x137 -1 x141 -1 x145 -1 x149 -1 x153 -1 x157 -1 x161 -1 x165 -1 x169 -1 x173 -1 x177 -1 x181 -1 x185 -1 x189 -1 x193 -1 x197 -1 x201 >= -10;
+1 x130 +1 x134 +1 x138 +1 x142 +1 x146 +1 x150 +1 x154 +1 x158 +1 x162 +1 x166 +1 x170 +1 x174 +1 x178 +1 x182 +1 x186 +1 x190 +1 x194 +1 x198 +1 x202 >= 9;
-1 x130 -1 x134 -1 x138 -1 x142 -1 x146 -1 x150 -1 x154 -1 x158 -1 x162 -1 x166 -1 x170 -1 x174 -1 x178 -1 x182 -1 x186 -1 x190 -1 x194 -1 x198 -1 x202 >= -10;
+1 x131 +1 x135 +1 x139 +1 x143 +1 x147 +1 x151 +1 x155 +1 x159 +1 x163 +1 x167 +1 x171 +1 x175 +1 x179 +1 x183 +1 x187 +1 x191 +1 x195 +1 x199 +1 x203 >= 9;
-1 x131 -1 x135 -1 x139 -1 x143 -1 x147 -1 x151 -1 x155 -1 x159 -1 x163 -1 x167 -1 x171 -1 x175 -1 x179 -1 x183 -1 x187 -1 x191 -1 x195 -1 x199 -1 x203 >= -10;
+1 x132 +1 x136 +1 x140 +1 x144 +1 x148 +1 x152 +1 x156 +1 x160 +1 x164 +1 x168 +1 x172 +1 x176 +1 x180 +1 x184 +1 x188 +1 x192 +1 x196 +1 x200 +1 x204 >= 9;
-1 x132 -1 x136 -1 x140 -1 x144 -1 x148 -1 x152 -1 x156 -1 x160 -1 x164 -1 x168 -1 x172 -1 x176 -1 x180 -1 x184 -1 x188 -1 x192 -1 x196 -1 x200 -1 x204 >= -10;
+1 x133 +1 x137 +1 x141 +1 x145 +1 x149 +1 x153 +1 x157 +1 x161 +1 x165 +1 x169 +1 x173 +1 x177 +1 x181 +1 x185 +1 x189 +1 x193 +1 x197 +1 x201 +1 x205 >= 9;
-1 x133 -1 x137 -1 x141 -1 x145 -1 x149 -1 x153 -1 x157 -1 x161 -1 x165 -1 x169 -1 x173 -1 x177 -1 x181 -1 x185 -1 x189 -1 x193 -1 x197 -1 x201 -1 x205 >= -10;
+1 x134 +1 x138 +1 x142 +1 x146 +1 x150 +1 x154 +1 x158 +1 x162 +1 x166 +1 x170 +1 x174 +1 x178 +1 x182 +1 x186 +1 x190 +1 x194 +1 x198 +1 x202 +1 x206 >= 9;
-1 x134 -1 x138 -1 x142 -1 x146 -1 x150 -1 x154 -1 x158 -1 x162 -1 x166 -1 x170 -1 x174 -1 x178 -1 x182 -1 x186 -1 x190 -1 x194 -1 x198 -1 x202 -1 x206 >= -10;
+1 x135 +1 x139 +1 x143 +1 x147 +1 x151 +1 x155 +1 x159 +1 x163 +1 x167 +1 x171 +1 x175 +1 x179 +1 x183 +1 x187 +1 x191 +1 x195 +1 x199 +1 x203 +1 x207 >= 9;
-1 x135 -1 x139 -1 x143 -1 x147 -1 x151 -1 x155 -1 x159 -1 x163 -1 x167 -1 x171 -1 x175 -1 x179 -1 x183 -1 x187 -1 x191 -1 x195 -1 x199 -1 x203 -1 x207 >= -10;
+1 x136 +1 x140 +1 x144 +1 x148 +1 x152 +1 x156 +1 x160 +1 x164 +1 x168 +1 x172 +1 x176 +1 x180 +1 x184 +1 x188 +1 x192 +1 x196 +1 x200 +1 x204 +1 x208 >= 9;
-1 x136 -1 x140 -1 x144 -1 x148 -1 x152 -1 x156 -1 x160 -1 x164 -1 x168 -1 x172 -1 x176 -1 x180 -1 x184 -1 x188 -1 x192 -1 x196 -1 x200 -1 x204 -1 x208 >= -10;
+1 x137 +1 x141 +1 x145 +1 x149 +1 x153 +1 x157 +1 x161 +1 x165 +1 x169 +1 x173 +1 x177 +1 x181 +1 x185 +1 x189 +1 x193 +1 x197 +1 x201 +1 x205 +1 x209 >= 9;
-1 x137 -1 x141 -1 x145 -1 x149 -1 x153 -1 x157 -1 x161 -1 x165 -1 x169 -1 x173 -1 x177 -1 x181 -1 x185 -1 x189 -1 x193 -1 x197 -1 x201 -1 x205 -1 x209 >= -10;
+1 x138 +1 x142 +1 x146 +1 x150 +1 x154 +1 x158 +1 x162 +1 x166 +1 x170 +1 x174 +1 x178 +1 x182 +1 x186 +1 x190 +1 x194 +1 x198 +1 x202 +1 x206 +1 x210 >= 9;
-1 x138 -1 x142 -1 x146 -1 x150 -1 x154 -1 x158 -1 x162 -1 x166 -1 x170 -1 x174 -1 x178 -1 x182 -1 x186 -1 x190 -1 x194 -1 x198 -1 x202 -1 x206 -1 x210 >= -10;
+1 x139 +1 x143 +1 x147 +1 x151 +1 x155 +1 x159 +1 x163 +1 x167 +1 x171 +1 x175 +1 x179 +1 x183 +1 x187 +1 x191 +1 x195 +1 x199 +1 x203 +1 x207 +1 x211 >= 9;
-1 x139 -1 x143 -1 x147 -1 x151 -1 x155 -1 x159 -1 x163 -1 x167 -1 x171 -1 x175 -1 x179 -1 x183 -1 x187 -1 x191 -1 x195 -1 x199 -1 x203 -1 x207 -1 x211 >= -10;
+1 x140 +1 x144 +1 x148 +1 x152 +1 x156 +1 x160 +1 x164 +1 x168 +1 x172 +1 x176 +1 x180 +1 x184 +1 x188 +1 x192 +1 x196 +1 x200 +1 x204 +1 x208 +1 x212 >= 9;
-1 x140 -1 x144 -1 x148 -1 x152 -1 x156 -1 x160 -1 x164 -1 x168 -1 x172 -1 x176 -1 x180 -1 x184 -1 x188 -1 x192 -1 x196 -1 x200 -1 x204 -1 x208 -1 x212 >= -10;
+1 x141 +1 x145 +1 x149 +1 x153 +1 x157 +1 x161 +1 x165 +1 x169 +1 x173 +1 x177 +1 x181 +1 x185 +1 x189 +1 x193 +1 x197 +1 x201 +1 x205 +1 x209 +1 x213 >= 9;
-1 x141 -1 x145 -1 x149 -1 x153 -1 x157 -1 x161 -1 x165 -1 x169 -1 x173 -1 x177 -1 x181 -1 x185 -1 x189 -1 x193 -1 x197 -1 x201 -1 x205 -1 x209 -1 x213 >= -10;
+1 x142 +1 x146 +1 x150 +1 x154 +1 x158 +1 x162 +1 x166 +1 x170 +1 x174 +1 x178 +1 x182 +1 x186 +1 x190 +1 x194 +1 x198 +1 x202 +1 x206 +1 x210 +1 x214 >= 9;
-1 x142 -1 x146 -1 x150 -1 x154 -1 x158 -1 x162 -1 x166 -1 x170 -1 x174 -1 x178 -1 x182 -1 x186 -1 x190 -1 x194 -1 x198 -1 x202 -1 x206 -1 x210 -1 x214 >= -10;
+1 x143 +1 x147 +1 x151 +1 x155 +1 x159 +1 x163 +1 x167 +1 x171 +1 x175 +1 x179 +1 x183 +1 x187 +1 x191 +1 x195 +1 x199 +1 x203 +1 x207 +1 x211 +1 x215 >= 9;
-1 x143 -1 x147 -1 x151 -1 x155 -1 x159 -1 x163 -1 x167 -1 x171 -1 x175 -1 x179 -1 x183 -1 x187 -1 x191 -1 x195 -1 x199 -1 x203 -1 x207 -1 x211 -1 x215 >= -10;
+1 x144 +1 x148 +1 x152 +1 x156 +1 x160 +1 x164 +1 x168 +1 x172 +1 x176 +1 x180 +1 x184 +1 x188 +1 x192 +1 x196 +1 x200 +1 x204 +1 x208 +1 x212 +1 x216 >= 9;
-1 x144 -1 x148 -1 x152 -1 x156 -1 x160 -1 x164 -1 x168 -1 x172 -1 x176 -1 x180 -1 x184 -1 x188 -1 x192 -1 x196 -1 x200 -1 x204 -1 x208 -1 x212 -1 x216 >= -10;
+1 x145 +1 x149 +1 x153 +1 x157 +1 x161 +1 x165 +1 x169 +1 x173 +1 x177 +1 x181 +1 x185 +1 x189 +1 x193 +1 x197 +1 x201 +1 x205 +1 x209 +1 x213 +1 x217 >= 9;
-1 x145 -1 x149 -1 x153 -1 x157 -1 x161 -1 x165 -1 x169 -1 x173 -1 x177 -1 x181 -1 x185 -1 x189 -1 x193 -1 x197 -1 x201 -1 x205 -1 x209 -1 x213 -1 x217 >= -10;
+1 x146 +1 x150 +1 x154 +1 x158 +1 x162 +1 x166 +1 x170 +1 x174 +1 x178 +1 x182 +1 x186 +1 x190 +1 x194 +1 x198 +1 x202 +1 x206 +1 x210 +1 x214 +1 x218 >= 9;
-1 x146 -1 x150 -1 x154 -1 x158 -1 x162 -1 x166 -1 x170 -1 x174 -1 x178 -1 x182 -1 x186 -1 x190 -1 x194 -1 x198 -1 x202 -1 x206 -1 x210 -1 x214 -1 x218 >= -10;
+1 x147 +1 x151 +1 x155 +1 x159 +1 x163 +1 x167 +1 x171 +1 x175 +1 x179 +1 x183 +1 x187 +1 x191 +1 x195 +1 x199 +1 x203 +1 x207 +1 x211 +1 x215 +1 x219 >= 9;
-1 x147 -1 x151 -1 x155 -1 x159 -1 x163 -1 x167 -1 x171 -1 x175 -1 x179 -1 x183 -1 x187 -1 x191 -1 x195 -1 x199 -1 x203 -1 x207 -1 x211 -1 x215 -1 x219 >= -10;
+1 x148 +1 x152 +1 x156 +1 x160 +1 x164 +1 x168 +1 x172 +1 x176 +1 x180 +1 x184 +1 x188 +1 x192 +1 x196 +1 x200 +1 x204 +1 x208 +1 x212 +1 x216 +1 x220 >= 9;
-1 x148 -1 x152 -1 x156 -1 x160 -1 x164 -1 x168 -1 x172 -1 x176 -1 x180 -1 x184 -1 x188 -1 x192 -1 x196 -1 x200 -1 x204 -1 x208 -1 x212 -1 x216 -1 x220 >= -10;
+1 x149 +1 x153 +1 x157 +1 x161 +1 x165 +1 x169 +1 x173 +1 x177 +1 x181 +1 x185 +1 x189 +1 x193 +1 x197 +1 x201 +1 x205 +1 x209 +1 x213 +1 x217 +1 x221 >= 9;
-1 x149 -1 x153 -1 x157 -1 x161 -1 x165 -1 x169 -1 x173 -1 x177 -1 x181 -1 x185 -1 x189 -1 x193 -1 x197 -1 x201 -1 x205 -1 x209 -1 x213 -1 x217 -1 x221 >= -10;
+1 x150 +1 x154 +1 x158 +1 x162 +1 x166 +1 x170 +1 x174 +1 x178 +1 x182 +1 x186 +1 x190 +1 x194 +1 x198 +1 x202 +1 x206 +1 x210 +1 x214 +1 x218 +1 x222 >= 9;
-1 x150 -1 x154 -1 x158 -1 x162 -1 x166 -1 x170 -1 x174 -1 x178 -1 x182 -1 x186 -1 x190 -1 x194 -1 x198 -1 x202 -1 x206 -1 x210 -1 x214 -1 x218 -1 x222 >= -10;
+1 x151 +1 x155 +1 x159 +1 x163 +1 x167 +1 x171 +1 x175 +1 x179 +1 x183 +1 x187 +1 x191 +1 x195 +1 x199 +1 x203 +1 x207 +1 x211 +1 x215 +1 x219 +1 x223 >= 9;
-1 x151 -1 x155 -1 x159 -1 x163 -1 x167 -1 x171 -1 x175 -1 x179 -1 x183 -1 x187 -1 x191 -1 x195 -1 x199 -1 x203 -1 x207 -1 x211 -1 x215 -1 x219 -1 x223 >= -10;
+1 x152 +1 x156 +1 x160 +1 x164 +1 x168 +1 x172 +1 x176 +1 x180 +1 x184 +1 x188 +1 x192 +1 x196 +1 x200 +1 x204 +1 x208 +1 x212 +1 x216 +1 x220 +1 x224 >= 9;
-1 x152 -1 x156 -1 x160 -1 x164 -1 x168 -1 x172 -1 x176 -1 x180 -1 x184 -1 x188 -1 x192 -1 x196 -1 x200 -1 x204 -1 x208 -1 x212 -1 x216 -1 x220 -1 x224 >= -10;
+1 x153 +1 x157 +1 x161 +1 x165 +1 x169 +1 x173 +1 x177 +1 x181 +1 x185 +1 x189 +1 x193 +1 x197 +1 x201 +1 x205 +1 x209 +1 x213 +1 x217 +1 x221 +1 x225 >= 9;
-1 x153 -1 x157 -1 x161 -1 x165 -1 x169 -1 x173 -1 x177 -1 x181 -1 x185 -1 x189 -1 x193 -1 x197 -1 x201 -1 x205 -1 x209 -1 x213 -1 x217 -1 x221 -1 x225 >= -10;
+1 x154 +1 x158 +1 x162 +1 x166 +1 x170 +1 x174 +1 x178 +1 x182 +1 x186 +1 x190 +1 x194 +1 x198 +1 x202 +1 x206 +1 x210 +1 x214 +1 x218 +1 x222 +1 x226 >= 9;
-1 x154 -1 x158 -1 x162 -1 x166 -1 x170 -1 x174 -1 x178 -1 x182 -1 x186 -1 x190 -1 x194 -1 x198 -1 x202 -1 x206 -1 x210 -1 x214 -1 x218 -1 x222 -1 x226 >= -10;
+1 x155 +1 x159 +1 x163 +1 x167 +1 x171 +1 x175 +1 x179 +1 x183 +1 x187 +1 x191 +1 x195 +1 x199 +1 x203 +1 x207 +1 x211 +1 x215 +1 x219 +1 x223 +1 x227 >= 9;
-1 x155 -1 x159 -1 x163 -1 x167 -1 x171 -1 x175 -1 x179 -1 x183 -1 x187 -1 x191 -1 x195 -1 x199 -1 x203 -1 x207 -1 x211 -1 x215 -1 x219 -1 x223 -1 x227 >= -10;
+1 x156 +1 x160 +1 x164 +1 x168 +1 x172 +1 x176 +1 x180 +1 x184 +1 x188 +1 x192 +1 x196 +1 x200 +1 x204 +1 x208 +1 x212 +1 x216 +1 x220 +1 x224 +1 x228 >= 9;
-1 x156 -1 x160 -1 x164 -1 x168 -1 x172 -1 x176 -1 x180 -1 x184 -1 x188 -1 x192 -1 x196 -1 x200 -1 x204 -1 x208 -1 x212 -1 x216 -1 x220 -1 x224 -1 x228 >= -10;
+1 x157 +1 x161 +1 x165 +1 x169 +1 x173 +1 x177 +1 x181 +1 x185 +1 x189 +1 x193 +1 x197 +1 x201 +1 x205 +1 x209 +1 x213 +1 x217 +1 x221 +1 x225 +1 x229 >= 9;
-1 x157 -1 x161 -1 x165 -1 x169 -1 x173 -1 x177 -1 x181 -1 x185 -1 x189 -1 x193 -1 x197 -1 x201 -1 x205 -1 x209 -1 x213 -1 x217 -1 x221 -1 x225 -1 x229 >= -10;
+1 x158 +1 x162 +1 x166 +1 x170 +1 x174 +1 x178 +1 x182 +1 x186 +1 x190 +1 x194 +1 x198 +1 x202 +1 x206 +1 x210 +1 x214 +1 x218 +1 x222 +1 x226 +1 x230 >= 9;
-1 x158 -1 x162 -1 x166 -1 x170 -1 x174 -1 x178 -1 x182 -1 x186 -1 x190 -1 x194 -1 x198 -1 x202 -1 x206 -1 x210 -1 x214 -1 x218 -1 x222 -1 x226 -1 x230 >= -10;
+1 x159 +1 x163 +1 x167 +1 x171 +1 x175 +1 x179 +1 x183 +1 x187 +1 x191 +1 x195 +1 x199 +1 x203 +1 x207 +1 x211 +1 x215 +1 x219 +1 x223 +1 x227 +1 x231 >= 9;
-1 x159 -1 x163 -1 x167 -1 x171 -1 x175 -1 x179 -1 x183 -1 x187 -1 x191 -1 x195 -1 x199 -1 x203 -1 x207 -1 x211 -1 x215 -1 x219 -1 x223 -1 x227 -1 x231 >= -10;
+1 x160 +1 x164 +1 x168 +1 x172 +1 x176 +1 x180 +1 x184 +1 x188 +1 x192 +1 x196 +1 x200 +1 x204 +1 x208 +1 x212 +1 x216 +1 x220 +1 x224 +1 x228 +1 x232 >= 9;
-1 x160 -1 x164 -1 x168 -1 x172 -1 x176 -1 x180 -1 x184 -1 x188 -1 x192 -1 x196 -1 x200 -1 x204 -1 x208 -1 x212 -1 x216 -1 x220 -1 x224 -1 x228 -1 x232 >= -10;
+1 x161 +1 x165 +1 x169 +1 x173 +1 x177 +1 x181 +1 x185 +1 x189 +1 x193 +1 x197 +1 x201 +1 x205 +1 x209 +1 x213 +1 x217 +1 x221 +1 x225 +1 x229 +1 x233 >= 9;
-1 x161 -1 x165 -1 x169 -1 x173 -1 x177 -1 x181 -1 x185 -1 x189 -1 x193 -1 x197 -1 x201 -1 x205 -1 x209 -1 x213 -1 x217 -1 x221 -1 x225 -1 x229 -1 x233 >= -10;
+1 x162 +1 x166 +1 x170 +1 x174 +1 x178 +1 x182 +1 x186 +1 x190 +1 x194 +1 x198 +1 x202 +1 x206 +1 x210 +1 x214 +1 x218 +1 x222 +1 x226 +1 x230 +1 x234 >= 9;
-1 x162 -1 x166 -1 x170 -1 x174 -1 x178 -1 x182 -1 x186 -1 x190 -1 x194 -1 x198 -1 x202 -1 x206 -1 x210 -1 x214 -1 x218 -1 x222 -1 x226 -1 x230 -1 x234 >= -10;
+1 x163 +1 x167 +1 x171 +1 x175 +1 x179 +1 x183 +1 x187 +1 x191 +1 x195 +1 x199 +1 x203 +1 x207 +1 x211 +1 x215 +1 x219 +1 x223 +1 x227 +1 x231 +1 x235 >= 9;
-1 x163 -1 x167 -1 x171 -1 x175 -1 x179 -1 x183 -1 x187 -1 x191 -1 x195 -1 x199 -1 x203 -1 x207 -1 x211 -1 x215 -1 x219 -1 x223 -1 x227 -1 x231 -1 x235 >= -10;
+1 x164 +1 x168 +1 x172 +1 x176 +1 x180 +1 x184 +1 x188 +1 x192 +1 x196 +1 x200 +1 x204 +1 x208 +1 x212 +1 x216 +1 x220 +1 x224 +1 x228 +1 x232 +1 x236 >= 9;
-1 x164 -1 x168 -1 x172 -1 x176 -1 x180 -1 x184 -1 x188 -1 x192 -1 x196 -1 x200 -1 x204 -1 x208 -1 x212 -1 x216 -1 x220 -1 x224 -1 x228 -1 x232 -1 x236 >= -10;
+1 x165 +1 x169 +1 x173 +1 x177 +1 x181 +1 x185 +1 x189 +1 x193 +1 x197 +1 x201 +1 x205 +1 x209 +1 x213 +1 x217 +1 x221 +1 x225 +1 x229 +1 x233 +1 x237 >= 9;
-1 x165 -1 x169 -1 x173 -1 x177 -1 x181 -1 x185 -1 x189 -1 x193 -1 x197 -1 x201 -1 x205 -1 x209 -1 x213 -1 x217 -1 x221 -1 x225 -1 x229 -1 x233 -1 x237 >= -10;
+1 x166 +1 x170 +1 x174 +1 x178 +1 x182 +1 x186 +1 x190 +1 x194 +1 x198 +1 x202 +1 x206 +1 x210 +1 x214 +1 x218 +1 x222 +1 x226 +1 x230 +1 x234 +1 x238 >= 9;
-1 x166 -1 x170 -1 x174 -1 x178 -1 x182 -1 x186 -1 x190 -1 x194 -1 x198 -1 x202 -1 x206 -1 x210 -1 x214 -1 x218 -1 x222 -1 x226 -1 x230 -1 x234 -1 x238 >= -10;
+1 x167 +1 x171 +1 x175 +1 x179 +1 x183 +1 x187 +1 x191 +1 x195 +1 x199 +1 x203 +1 x207 +1 x211 +1 x215 +1 x219 +1 x223 +1 x227 +1 x231 +1 x235 +1 x239 >= 9;
-1 x167 -1 x171 -1 x175 -1 x179 -1 x183 -1 x187 -1 x191 -1 x195 -1 x199 -1 x203 -1 x207 -1 x211 -1 x215 -1 x219 -1 x223 -1 x227 -1 x231 -1 x235 -1 x239 >= -10;
+1 x168 +1 x172 +1 x176 +1 x180 +1 x184 +1 x188 +1 x192 +1 x196 +1 x200 +1 x204 +1 x208 +1 x212 +1 x216 +1 x220 +1 x224 +1 x228 +1 x232 +1 x236 +1 x240 >= 9;
-1 x168 -1 x172 -1 x176 -1 x180 -1 x184 -1 x188 -1 x192 -1 x196 -1 x200 -1 x204 -1 x208 -1 x212 -1 x216 -1 x220 -1 x224 -1 x228 -1 x232 -1 x236 -1 x240 >= -10;
+1 x169 +1 x173 +1 x177 +1 x181 +1 x185 +1 x189 +1 x193 +1 x197 +1 x201 +1 x205 +1 x209 +1 x213 +1 x217 +1 x221 +1 x225 +1 x229 +1 x233 +1 x237 +1 x241 >= 9;
-1 x169 -1 x173 -1 x177 -1 x181 -1 x185 -1 x189 -1 x193 -1 x197 -1 x201 -1 x205 -1 x209 -1 x213 -1 x217 -1 x221 -1 x225 -1 x229 -1 x233 -1 x237 -1 x241 >= -10;
+1 x170 +1 x174 +1 x178 +1 x182 +1 x186 +1 x190 +1 x194 +1 x198 +1 x202 +1 x206 +1 x210 +1 x214 +1 x218 +1 x222 +1 x226 +1 x230 +1 x234 +1 x238 +1 x242 >= 9;
-1 x170 -1 x174 -1 x178 -1 x182 -1 x186 -1 x190 -1 x194 -1 x198 -1 x202 -1 x206 -1 x210 -1 x214 -1 x218 -1 x222 -1 x226 -1 x230 -1 x234 -1 x238 -1 x242 >= -10;
+1 x171 +1 x175 +1 x179 +1 x183 +1 x187 +1 x191 +1 x195 +1 x199 +1 x203 +1 x207 +1 x211 +1 x215 +1 x219 +1 x223 +1 x227 +1 x231 +1 x235 +1 x239 +1 x243 >= 9;
-1 x171 -1 x175 -1 x179 -1 x183 -1 x187 -1 x191 -1 x195 -1 x199 -1 x203 -1 x207 -1 x211 -1 x215 -1 x219 -1 x223 -1 x227 -1 x231 -1 x235 -1 x239 -1 x243 >= -10;
+1 x172 +1 x176 +1 x180 +1 x184 +1 x188 +1 x192 +1 x196 +1 x200 +1 x204 +1 x208 +1 x212 +1 x216 +1 x220 +1 x224 +1 x228 +1 x232 +1 x236 +1 x240 +1 x244 >= 9;
-1 x172 -1 x176 -1 x180 -1 x184 -1 x188 -1 x192 -1 x196 -1 x200 -1 x204 -1 x208 -1 x212 -1 x216 -1 x220 -1 x224 -1 x228 -1 x232 -1 x236 -1 x240 -1 x244 >= -10;
+1 x173 +1 x177 +1 x181 +1 x185 +1 x189 +1 x193 +1 x197 +1 x201 +1 x205 +1 x209 +1 x213 +1 x217 +1 x221 +1 x225 +1 x229 +1 x233 +1 x237 +1 x241 +1 x245 >= 9;
-1 x173 -1 x177 -1 x181 -1 x185 -1 x189 -1 x193 -1 x197 -1 x201 -1 x205 -1 x209 -1 x213 -1 x217 -1 x221 -1 x225 -1 x229 -1 x233 -1 x237 -1 x241 -1 x245 >= -10;
+1 x174 +1 x178 +1 x182 +1 x186 +1 x190 +1 x194 +1 x198 +1 x202 +1 x206 +1 x210 +1 x214 +1 x218 +1 x222 +1 x226 +1 x230 +1 x234 +1 x238 +1 x242 +1 x246 >= 9;
-1 x174 -1 x178 -1 x182 -1 x186 -1 x190 -1 x194 -1 x198 -1 x202 -1 x206 -1 x210 -1 x214 -1 x218 -1 x222 -1 x226 -1 x230 -1 x234 -1 x238 -1 x242 -1 x246 >= -10;
+1 x175 +1 x179 +1 x183 +1 x187 +1 x191 +1 x195 +1 x199 +1 x203 +1 x207 +1 x211 +1 x215 +1 x219 +1 x223 +1 x227 +1 x231 +1 x235 +1 x239 +1 x243 +1 x247 >= 9;
-1 x175 -1 x179 -1 x183 -1 x187 -1 x191 -1 x195 -1 x199 -1 x203 -1 x207 -1 x211 -1 x215 -1 x219 -1 x223 -1 x227 -1 x231 -1 x235 -1 x239 -1 x243 -1 x247 >= -10;
+1 x176 +1 x180 +1 x184 +1 x188 +1 x192 +1 x196 +1 x200 +1 x204 +1 x208 +1 x212 +1 x216 +1 x220 +1 x224 +1 x228 +1 x232 +1 x236 +1 x240 +1 x244 +1 x248 >= 9;
-1 x176 -1 x180 -1 x184 -1 x188 -1 x192 -1 x196 -1 x200 -1 x204 -1 x208 -1 x212 -1 x216 -1 x220 -1 x224 -1 x228 -1 x232 -1 x236 -1 x240 -1 x244 -1 x248 >= -10;
+1 x177 +1 x181 +1 x185 +1 x189 +1 x193 +1 x197 +1 x201 +1 x205 +1 x209 +1 x213 +1 x217 +1 x221 +1 x225 +1 x229 +1 x233 +1 x237 +1 x241 +1 x245 +1 x249 >= 9;
-1 x177 -1 x181 -1 x185 -1 x189 -1 x193 -1 x197 -1 x201 -1 x205 -1 x209 -1 x213 -1 x217 -1 x221 -1 x225 -1 x229 -1 x233 -1 x237 -1 x241 -1 x245 -1 x249 >= -10;
+1 x178 +1 x182 +1 x186 +1 x190 +1 x194 +1 x198 +1 x202 +1 x206 +1 x210 +1 x214 +1 x218 +1 x222 +1 x226 +1 x230 +1 x234 +1 x238 +1 x242 +1 x246 +1 x250 >= 9;
-1 x178 -1 x182 -1 x186 -1 x190 -1 x194 -1 x198 -1 x202 -1 x206 -1 x210 -1 x214 -1 x218 -1 x222 -1 x226 -1 x230 -1 x234 -1 x238 -1 x242 -1 x246 -1 x250 >= -10;
+1 x179 +1 x183 +1 x187 +1 x191 +1 x195 +1 x199 +1 x203 +1 x207 +1 x211 +1 x215 +1 x219 +1 x223 +1 x227 +1 x231 +1 x235 +1 x239 +1 x243 +1 x247 +1 x251 >= 9;
-1 x179 -1 x183 -1 x187 -1 x191 -1 x195 -1 x199 -1 x203 -1 x207 -1 x211 -1 x215 -1 x219 -1 x223 -1 x227 -1 x231 -1 x235 -1 x239 -1 x243 -1 x247 -1 x251 >= -10;
+1 x180 +1 x184 +1 x188 +1 x192 +1 x196 +1 x200 +1 x204 +1 x208 +1 x212 +1 x216 +1 x220 +1 x224 +1 x228 +1 x232 +1 x236 +1 x240 +1 x244 +1 x248 +1 x252 >= 9;
-1 x180 -1 x184 -1 x188 -1 x192 -1 x196 -1 x200 -1 x204 -1 x208 -1 x212 -1 x216 -1 x220 -1 x224 -1 x228 -1 x232 -1 x236 -1 x240 -1 x244 -1 x248 -1 x252 >= -10;
+1 x181 +1 x185 +1 x189 +1 x193 +1 x197 +1 x201 +1 x205 +1 x209 +1 x213 +1 x217 +1 x221 +1 x225 +1 x229 +1 x233 +1 x237 +1 x241 +1 x245 +1 x249 +1 x253 >= 9;
-1 x181 -1 x185 -1 x189 -1 x193 -1 x197 -1 x201 -1 x205 -1 x209 -1 x213 -1 x217 -1 x221 -1 x225 -1 x229 -1 x233 -1 x237 -1 x241 -1 x245 -1 x249 -1 x253 >= -10;
+1 x182 +1 x186 +1 x190 +1 x194 +1 x198 +1 x202 +1 x206 +1 x210 +1 x214 +1 x218 +1 x222 +1 x226 +1 x230 +1 x234 +1 x238 +1 x242 +1 x246 +1 x250 +1 x254 >= 9;
-1 x182 -1 x186 -1 x190 -1 x194 -1 x198 -1 x202 -1 x206 -1 x210 -1 x214 -1 x218 -1 x222 -1 x226 -1 x230 -1 x234 -1 x238 -1 x242 -1 x246 -1 x250 -1 x254 >= -10;
+1 x183 +1 x187 +1 x191 +1 x195 +1 x199 +1 x203 +1 x207 +1 x211 +1 x215 +1 x219 +1 x223 +1 x227 +1 x231 +1 x235 +1 x239 +1 x243 +1 x247 +1 x251 +1 x255 >= 9;
-1 x183 -1 x187 -1 x191 -1 x195 -1 x199 -1 x203 -1 x207 -1 x211 -1 x215 -1 x219 -1 x223 -1 x227 -1 x231 -1 x235 -1 x239 -1 x243 -1 x247 -1 x251 -1 x255 >= -10;
+1 x184 +1 x188 +1 x192 +1 x196 +1 x200 +1 x204 +1 x208 +1 x212 +1 x216 +1 x220 +1 x224 +1 x228 +1 x232 +1 x236 +1 x240 +1 x244 +1 x248 +1 x252 +1 x256 >= 9;
-1 x184 -1 x188 -1 x192 -1 x196 -1 x200 -1 x204 -1 x208 -1 x212 -1 x216 -1 x220 -1 x224 -1 x228 -1 x232 -1 x236 -1 x240 -1 x244 -1 x248 -1 x252 -1 x256 >= -10;
+1 x185 +1 x189 +1 x193 +1 x197 +1 x201 +1 x205 +1 x209 +1 x213 +1 x217 +1 x221 +1 x225 +1 x229 +1 x233 +1 x237 +1 x241 +1 x245 +1 x249 +1 x253 +1 x257 >= 9;
-1 x185 -1 x189 -1 x193 -1 x197 -1 x201 -1 x205 -1 x209 -1 x213 -1 x217 -1 x221 -1 x225 -1 x229 -1 x233 -1 x237 -1 x241 -1 x245 -1 x249 -1 x253 -1 x257 >= -10;
+1 x186 +1 x190 +1 x194 +1 x198 +1 x202 +1 x206 +1 x210 +1 x214 +1 x218 +1 x222 +1 x226 +1 x230 +1 x234 +1 x238 +1 x242 +1 x246 +1 x250 +1 x254 +1 x258 >= 9;
-1 x186 -1 x190 -1 x194 -1 x198 -1 x202 -1 x206 -1 x210 -1 x214 -1 x218 -1 x222 -1 x226 -1 x230 -1 x234 -1 x238 -1 x242 -1 x246 -1 x250 -1 x254 -1 x258 >= -10;
+1 x187 +1 x191 +1 x195 +1 x199 +1 x203 +1 x207 +1 x211 +1 x215 +1 x219 +1 x223 +1 x227 +1 x231 +1 x235 +1 x239 +1 x243 +1 x247 +1 x251 +1 x255 +1 x259 >= 9;
-1 x187 -1 x191 -1 x195 -1 x199 -1 x203 -1 x207 -1 x211 -1 x215 -1 x219 -1 x223 -1 x227 -1 x231 -1 x235 -1 x239 -1 x243 -1 x247 -1 x251 -1 x255 -1 x259 >= -10;
+1 x188 +1 x192 +1 x196 +1 x200 +1 x204 +1 x208 +1 x212 +1 x216 +1 x220 +1 x224 +1 x228 +1 x232 +1 x236 +1 x240 +1 x244 +1 x248 +1 x252 +1 x256 +1 x260 >= 9;
-1 x188 -1 x192 -1 x196 -1 x200 -1 x204 -1 x208 -1 x212 -1 x216 -1 x220 -1 x224 -1 x228 -1 x232 -1 x236 -1 x240 -1 x244 -1 x248 -1 x252 -1 x256 -1 x260 >= -10;
+1 x189 +1 x193 +1 x197 +1 x201 +1 x205 +1 x209 +1 x213 +1 x217 +1 x221 +1 x225 +1 x229 +1 x233 +1 x237 +1 x241 +1 x245 +1 x249 +1 x253 +1 x257 +1 x261 >= 9;
-1 x189 -1 x193 -1 x197 -1 x201 -1 x205 -1 x209 -1 x213 -1 x217 -1 x221 -1 x225 -1 x229 -1 x233 -1 x237 -1 x241 -1 x245 -1 x249 -1 x253 -1 x257 -1 x261 >= -10;
+1 x190 +1 x194 +1 x198 +1 x202 +1 x206 +1 x210 +1 x214 +1 x218 +1 x222 +1 x226 +1 x230 +1 x234 +1 x238 +1 x242 +1 x246 +1 x250 +1 x254 +1 x258 +1 x262 >= 9;
-1 x190 -1 x194 -1 x198 -1 x202 -1 x206 -1 x210 -1 x214 -1 x218 -1 x222 -1 x226 -1 x230 -1 x234 -1 x238 -1 x242 -1 x246 -1 x250 -1 x254 -1 x258 -1 x262 >= -10;
+1 x191 +1 x195 +1 x199 +1 x203 +1 x207 +1 x211 +1 x215 +1 x219 +1 x223 +1 x227 +1 x231 +1 x235 +1 x239 +1 x243 +1 x247 +1 x251 +1 x255 +1 x259 +1 x263 >= 9;
-1 x191 -1 x195 -1 x199 -1 x203 -1 x207 -1 x211 -1 x215 -1 x219 -1 x223 -1 x227 -1 x231 -1 x235 -1 x239 -1 x243 -1 x247 -1 x251 -1 x255 -1 x259 -1 x263 >= -10;
+1 x192 +1 x196 +1 x200 +1 x204 +1 x208 +1 x212 +1 x216 +1 x220 +1 x224 +1 x228 +1 x232 +1 x236 +1 x240 +1 x244 +1 x248 +1 x252 +1 x256 +1 x260 +1 x264 >= 9;
-1 x192 -1 x196 -1 x200 -1 x204 -1 x208 -1 x212 -1 x216 -1 x220 -1 x224 -1 x228 -1 x232 -1 x236 -1 x240 -1 x244 -1 x248 -1 x252 -1 x256 -1 x260 -1 x264 >= -10;
+1 x193 +1 x197 +1 x201 +1 x205 +1 x209 +1 x213 +1 x217 +1 x221 +1 x225 +1 x229 +1 x233 +1 x237 +1 x241 +1 x245 +1 x249 +1 x253 +1 x257 +1 x261 +1 x265 >= 9;
-1 x193 -1 x197 -1 x201 -1 x205 -1 x209 -1 x213 -1 x217 -1 x221 -1 x225 -1 x229 -1 x233 -1 x237 -1 x241 -1 x245 -1 x249 -1 x253 -1 x257 -1 x261 -1 x265 >= -10;
+1 x194 +1 x198 +1 x202 +1 x206 +1 x210 +1 x214 +1 x218 +1 x222 +1 x226 +1 x230 +1 x234 +1 x238 +1 x242 +1 x246 +1 x250 +1 x254 +1 x258 +1 x262 +1 x266 >= 9;
-1 x194 -1 x198 -1 x202 -1 x206 -1 x210 -1 x214 -1 x218 -1 x222 -1 x226 -1 x230 -1 x234 -1 x238 -1 x242 -1 x246 -1 x250 -1 x254 -1 x258 -1 x262 -1 x266 >= -10;
+1 x195 +1 x199 +1 x203 +1 x207 +1 x211 +1 x215 +1 x219 +1 x223 +1 x227 +1 x231 +1 x235 +1 x239 +1 x243 +1 x247 +1 x251 +1 x255 +1 x259 +1 x263 +1 x267 >= 9;
-1 x195 -1 x199 -1 x203 -1 x207 -1 x211 -1 x215 -1 x219 -1 x223 -1 x227 -1 x231 -1 x235 -1 x239 -1 x243 -1 x247 -1 x251 -1 x255 -1 x259 -1 x263 -1 x267 >= -10;
+1 x196 +1 x200 +1 x204 +1 x208 +1 x212 +1 x216 +1 x220 +1 x224 +1 x228 +1 x232 +1 x236 +1 x240 +1 x244 +1 x248 +1 x252 +1 x256 +1 x260 +1 x264 +1 x268 >= 9;
-1 x196 -1 x200 -1 x204 -1 x208 -1 x212 -1 x216 -1 x220 -1 x224 -1 x228 -1 x232 -1 x236 -1 x240 -1 x244 -1 x248 -1 x252 -1 x256 -1 x260 -1 x264 -1 x268 >= -10;
+1 x197 +1 x201 +1 x205 +1 x209 +1 x213 +1 x217 +1 x221 +1 x225 +1 x229 +1 x233 +1 x237 +1 x241 +1 x245 +1 x249 +1 x253 +1 x257 +1 x261 +1 x265 +1 x269 >= 9;
-1 x197 -1 x201 -1 x205 -1 x209 -1 x213 -1 x217 -1 x221 -1 x225 -1 x229 -1 x233 -1 x237 -1 x241 -1 x245 -1 x249 -1 x253 -1 x257 -1 x261 -1 x265 -1 x269 >= -10;
+1 x198 +1 x202 +1 x206 +1 x210 +1 x214 +1 x218 +1 x222 +1 x226 +1 x230 +1 x234 +1 x238 +1 x242 +1 x246 +1 x250 +1 x254 +1 x258 +1 x262 +1 x266 +1 x270 >= 9;
-1 x198 -1 x202 -1 x206 -1 x210 -1 x214 -1 x218 -1 x222 -1 x226 -1 x230 -1 x234 -1 x238 -1 x242 -1 x246 -1 x250 -1 x254 -1 x258 -1 x262 -1 x266 -1 x270 >= -10;
+1 x199 +1 x203 +1 x207 +1 x211 +1 x215 +1 x219 +1 x223 +1 x227 +1 x231 +1 x235 +1 x239 +1 x243 +1 x247 +1 x251 +1 x255 +1 x259 +1 x263 +1 x267 +1 x271 >= 9;
-1 x199 -1 x203 -1 x207 -1 x211 -1 x215 -1 x219 -1 x223 -1 x227 -1 x231 -1 x235 -1 x239 -1 x243 -1 x247 -1 x251 -1 x255 -1 x259 -1 x263 -1 x267 -1 x271 >= -10;
+1 x200 +1 x204 +1 x208 +1 x212 +1 x216 +1 x220 +1 x224 +1 x228 +1 x232 +1 x236 +1 x240 +1 x244 +1 x248 +1 x252 +1 x256 +1 x260 +1 x264 +1 x268 +1 x272 >= 9;
-1 x200 -1 x204 -1 x208 -1 x212 -1 x216 -1 x220 -1 x224 -1 x228 -1 x232 -1 x236 -1 x240 -1 x244 -1 x248 -1 x252 -1 x256 -1 x260 -1 x264 -1 x268 -1 x272 >= -10;
+1 x201 +1 x205 +1 x209 +1 x213 +1 x217 +1 x221 +1 x225 +1 x229 +1 x233 +1 x237 +1 x241 +1 x245 +1 x249 +1 x253 +1 x257 +1 x261 +1 x265 +1 x269 +1 x273 >= 9;
-1 x201 -1 x205 -1 x209 -1 x213 -1 x217 -1 x221 -1 x225 -1 x229 -1 x233 -1 x237 -1 x241 -1 x245 -1 x249 -1 x253 -1 x257 -1 x261 -1 x265 -1 x269 -1 x273 >= -10;
+1 x202 +1 x206 +1 x210 +1 x214 +1 x218 +1 x222 +1 x226 +1 x230 +1 x234 +1 x238 +1 x242 +1 x246 +1 x250 +1 x254 +1 x258 +1 x262 +1 x266 +1 x270 +1 x274 >= 9;
-1 x202 -1 x206 -1 x210 -1 x214 -1 x218 -1 x222 -1 x226 -1 x230 -1 x234 -1 x238 -1 x242 -1 x246 -1 x250 -1 x254 -1 x258 -1 x262 -1 x266 -1 x270 -1 x274 >= -10;
+1 x203 +1 x207 +1 x211 +1 x215 +1 x219 +1 x223 +1 x227 +1 x231 +1 x235 +1 x239 +1 x243 +1 x247 +1 x251 +1 x255 +1 x259 +1 x263 +1 x267 +1 x271 +1 x275 >= 9;
-1 x203 -1 x207 -1 x211 -1 x215 -1 x219 -1 x223 -1 x227 -1 x231 -1 x235 -1 x239 -1 x243 -1 x247 -1 x251 -1 x255 -1 x259 -1 x263 -1 x267 -1 x271 -1 x275 >= -10;
+1 x204 +1 x208 +1 x212 +1 x216 +1 x220 +1 x224 +1 x228 +1 x232 +1 x236 +1 x240 +1 x244 +1 x248 +1 x252 +1 x256 +1 x260 +1 x264 +1 x268 +1 x272 +1 x276 >= 9;
-1 x204 -1 x208 -1 x212 -1 x216 -1 x220 -1 x224 -1 x228 -1 x232 -1 x236 -1 x240 -1 x244 -1 x248 -1 x252 -1 x256 -1 x260 -1 x264 -1 x268 -1 x272 -1 x276 >= -10;
+1 x205 +1 x209 +1 x213 +1 x217 +1 x221 +1 x225 +1 x229 +1 x233 +1 x237 +1 x241 +1 x245 +1 x249 +1 x253 +1 x257 +1 x261 +1 x265 +1 x269 +1 x273 +1 x277 >= 9;
-1 x205 -1 x209 -1 x213 -1 x217 -1 x221 -1 x225 -1 x229 -1 x233 -1 x237 -1 x241 -1 x245 -1 x249 -1 x253 -1 x257 -1 x261 -1 x265 -1 x269 -1 x273 -1 x277 >= -10;
+1 x206 +1 x210 +1 x214 +1 x218 +1 x222 +1 x226 +1 x230 +1 x234 +1 x238 +1 x242 +1 x246 +1 x250 +1 x254 +1 x258 +1 x262 +1 x266 +1 x270 +1 x274 +1 x278 >= 9;
-1 x206 -1 x210 -1 x214 -1 x218 -1 x222 -1 x226 -1 x230 -1 x234 -1 x238 -1 x242 -1 x246 -1 x250 -1 x254 -1 x258 -1 x262 -1 x266 -1 x270 -1 x274 -1 x278 >= -10;
+1 x207 +1 x211 +1 x215 +1 x219 +1 x223 +1 x227 +1 x231 +1 x235 +1 x239 +1 x243 +1 x247 +1 x251 +1 x255 +1 x259 +1 x263 +1 x267 +1 x271 +1 x275 +1 x279 >= 9;
-1 x207 -1 x211 -1 x215 -1 x219 -1 x223 -1 x227 -1 x231 -1 x235 -1 x239 -1 x243 -1 x247 -1 x251 -1 x255 -1 x259 -1 x263 -1 x267 -1 x271 -1 x275 -1 x279 >= -10;
+1 x208 +1 x212 +1 x216 +1 x220 +1 x224 +1 x228 +1 x232 +1 x236 +1 x240 +1 x244 +1 x248 +1 x252 +1 x256 +1 x260 +1 x264 +1 x268 +1 x272 +1 x276 +1 x280 >= 9;
-1 x208 -1 x212 -1 x216 -1 x220 -1 x224 -1 x228 -1 x232 -1 x236 -1 x240 -1 x244 -1 x248 -1 x252 -1 x256 -1 x260 -1 x264 -1 x268 -1 x272 -1 x276 -1 x280 >= -10;
+1 x209 +1 x213 +1 x217 +1 x221 +1 x225 +1 x229 +1 x233 +1 x237 +1 x241 +1 x245 +1 x249 +1 x253 +1 x257 +1 x261 +1 x265 +1 x269 +1 x273 +1 x277 +1 x281 >= 9;
-1 x209 -1 x213 -1 x217 -1 x221 -1 x225 -1 x229 -1 x233 -1 x237 -1 x241 -1 x245 -1 x249 -1 x253 -1 x257 -1 x261 -1 x265 -1 x269 -1 x273 -1 x277 -1 x281 >= -10;
+1 x210 +1 x214 +1 x218 +1 x222 +1 x226 +1 x230 +1 x234 +1 x238 +1 x242 +1 x246 +1 x250 +1 x254 +1 x258 +1 x262 +1 x266 +1 x270 +1 x274 +1 x278 +1 x282 >= 9;
-1 x210 -1 x214 -1 x218 -1 x222 -1 x226 -1 x230 -1 x234 -1 x238 -1 x242 -1 x246 -1 x250 -1 x254 -1 x258 -1 x262 -1 x266 -1 x270 -1 x274 -1 x278 -1 x282 >= -10;
+1 x211 +1 x215 +1 x219 +1 x223 +1 x227 +1 x231 +1 x235 +1 x239 +1 x243 +1 x247 +1 x251 +1 x255 +1 x259 +1 x263 +1 x267 +1 x271 +1 x275 +1 x279 +1 x283 >= 9;
-1 x211 -1 x215 -1 x219 -1 x223 -1 x227 -1 x231 -1 x235 -1 x239 -1 x243 -1 x247 -1 x251 -1 x255 -1 x259 -1 x263 -1 x267 -1 x271 -1 x275 -1 x279 -1 x283 >= -10;
+1 x212 +1 x216 +1 x220 +1 x224 +1 x228 +1 x232 +1 x236 +1 x240 +1 x244 +1 x248 +1 x252 +1 x256 +1 x260 +1 x264 +1 x268 +1 x272 +1 x276 +1 x280 +1 x284 >= 9;
-1 x212 -1 x216 -1 x220 -1 x224 -1 x228 -1 x232 -1 x236 -1 x240 -1 x244 -1 x248 -1 x252 -1 x256 -1 x260 -1 x264 -1 x268 -1 x272 -1 x276 -1 x280 -1 x284 >= -10;
+1 x213 +1 x217 +1 x221 +1 x225 +1 x229 +1 x233 +1 x237 +1 x241 +1 x245 +1 x249 +1 x253 +1 x257 +1 x261 +1 x265 +1 x269 +1 x273 +1 x277 +1 x281 +1 x285 >= 9;
-1 x213 -1 x217 -1 x221 -1 x225 -1 x229 -1 x233 -1 x237 -1 x241 -1 x245 -1 x249 -1 x253 -1 x257 -1 x261 -1 x265 -1 x269 -1 x273 -1 x277 -1 x281 -1 x285 >= -10;
+1 x214 +1 x218 +1 x222 +1 x226 +1 x230 +1 x234 +1 x238 +1 x242 +1 x246 +1 x250 +1 x254 +1 x258 +1 x262 +1 x266 +1 x270 +1 x274 +1 x278 +1 x282 +1 x286 >= 9;
-1 x214 -1 x218 -1 x222 -1 x226 -1 x230 -1 x234 -1 x238 -1 x242 -1 x246 -1 x250 -1 x254 -1 x258 -1 x262 -1 x266 -1 x270 -1 x274 -1 x278 -1 x282 -1 x286 >= -10;
+1 x215 +1 x219 +1 x223 +1 x227 +1 x231 +1 x235 +1 x239 +1 x243 +1 x247 +1 x251 +1 x255 +1 x259 +1 x263 +1 x267 +1 x271 +1 x275 +1 x279 +1 x283 +1 x287 >= 9;
-1 x215 -1 x219 -1 x223 -1 x227 -1 x231 -1 x235 -1 x239 -1 x243 -1 x247 -1 x251 -1 x255 -1 x259 -1 x263 -1 x267 -1 x271 -1 x275 -1 x279 -1 x283 -1 x287 >= -10;
+1 x216 +1 x220 +1 x224 +1 x228 +1 x232 +1 x236 +1 x240 +1 x244 +1 x248 +1 x252 +1 x256 +1 x260 +1 x264 +1 x268 +1 x272 +1 x276 +1 x280 +1 x284 +1 x288 >= 9;
-1 x216 -1 x220 -1 x224 -1 x228 -1 x232 -1 x236 -1 x240 -1 x244 -1 x248 -1 x252 -1 x256 -1 x260 -1 x264 -1 x268 -1 x272 -1 x276 -1 x280 -1 x284 -1 x288 >= -10;
+1 x217 +1 x221 +1 x225 +1 x229 +1 x233 +1 x237 +1 x241 +1 x245 +1 x249 +1 x253 +1 x257 +1 x261 +1 x265 +1 x269 +1 x273 +1 x277 +1 x281 +1 x285 +1 x289 >= 9;
-1 x217 -1 x221 -1 x225 -1 x229 -1 x233 -1 x237 -1 x241 -1 x245 -1 x249 -1 x253 -1 x257 -1 x261 -1 x265 -1 x269 -1 x273 -1 x277 -1 x281 -1 x285 -1 x289 >= -10;
+1 x218 +1 x222 +1 x226 +1 x230 +1 x234 +1 x238 +1 x242 +1 x246 +1 x250 +1 x254 +1 x258 +1 x262 +1 x266 +1 x270 +1 x274 +1 x278 +1 x282 +1 x286 +1 x290 >= 9;
-1 x218 -1 x222 -1 x226 -1 x230 -1 x234 -1 x238 -1 x242 -1 x246 -1 x250 -1 x254 -1 x258 -1 x262 -1 x266 -1 x270 -1 x274 -1 x278 -1 x282 -1 x286 -1 x290 >= -10;
+1 x219 +1 x223 +1 x227 +1 x231 +1 x235 +1 x239 +1 x243 +1 x247 +1 x251 +1 x255 +1 x259 +1 x263 +1 x267 +1 x271 +1 x275 +1 x279 +1 x283 +1 x287 +1 x291 >= 9;
-1 x219 -1 x223 -1 x227 -1 x231 -1 x235 -1 x239 -1 x243 -1 x247 -1 x251 -1 x255 -1 x259 -1 x263 -1 x267 -1 x271 -1 x275 -1 x279 -1 x283 -1 x287 -1 x291 >= -10;
+1 x220 +1 x224 +1 x228 +1 x232 +1 x236 +1 x240 +1 x244 +1 x248 +1 x252 +1 x256 +1 x260 +1 x264 +1 x268 +1 x272 +1 x276 +1 x280 +1 x284 +1 x288 +1 x292 >= 9;
-1 x220 -1 x224 -1 x228 -1 x232 -1 x236 -1 x240 -1 x244 -1 x248 -1 x252 -1 x256 -1 x260 -1 x264 -1 x268 -1 x272 -1 x276 -1 x280 -1 x284 -1 x288 -1 x292 >= -10;
+1 x221 +1 x225 +1 x229 +1 x233 +1 x237 +1 x241 +1 x245 +1 x249 +1 x253 +1 x257 +1 x261 +1 x265 +1 x269 +1 x273 +1 x277 +1 x281 +1 x285 +1 x289 +1 x293 >= 9;
-1 x221 -1 x225 -1 x229 -1 x233 -1 x237 -1 x241 -1 x245 -1 x249 -1 x253 -1 x257 -1 x261 -1 x265 -1 x269 -1 x273 -1 x277 -1 x281 -1 x285 -1 x289 -1 x293 >= -10;
+1 x222 +1 x226 +1 x230 +1 x234 +1 x238 +1 x242 +1 x246 +1 x250 +1 x254 +1 x258 +1 x262 +1 x266 +1 x270 +1 x274 +1 x278 +1 x282 +1 x286 +1 x290 +1 x294 >= 9;
-1 x222 -1 x226 -1 x230 -1 x234 -1 x238 -1 x242 -1 x246 -1 x250 -1 x254 -1 x258 -1 x262 -1 x266 -1 x270 -1 x274 -1 x278 -1 x282 -1 x286 -1 x290 -1 x294 >= -10;
+1 x223 +1 x227 +1 x231 +1 x235 +1 x239 +1 x243 +1 x247 +1 x251 +1 x255 +1 x259 +1 x263 +1 x267 +1 x271 +1 x275 +1 x279 +1 x283 +1 x287 +1 x291 +1 x295 >= 9;
-1 x223 -1 x227 -1 x231 -1 x235 -1 x239 -1 x243 -1 x247 -1 x251 -1 x255 -1 x259 -1 x263 -1 x267 -1 x271 -1 x275 -1 x279 -1 x283 -1 x287 -1 x291 -1 x295 >= -10;
+1 x224 +1 x228 +1 x232 +1 x236 +1 x240 +1 x244 +1 x248 +1 x252 +1 x256 +1 x260 +1 x264 +1 x268 +1 x272 +1 x276 +1 x280 +1 x284 +1 x288 +1 x292 +1 x296 >= 9;
-1 x224 -1 x228 -1 x232 -1 x236 -1 x240 -1 x244 -1 x248 -1 x252 -1 x256 -1 x260 -1 x264 -1 x268 -1 x272 -1 x276 -1 x280 -1 x284 -1 x288 -1 x292 -1 x296 >= -10;
+1 x225 +1 x229 +1 x233 +1 x237 +1 x241 +1 x245 +1 x249 +1 x253 +1 x257 +1 x261 +1 x265 +1 x269 +1 x273 +1 x277 +1 x281 +1 x285 +1 x289 +1 x293 +1 x297 >= 9;
-1 x225 -1 x229 -1 x233 -1 x237 -1 x241 -1 x245 -1 x249 -1 x253 -1 x257 -1 x261 -1 x265 -1 x269 -1 x273 -1 x277 -1 x281 -1 x285 -1 x289 -1 x293 -1 x297 >= -10;
+1 x226 +1 x230 +1 x234 +1 x238 +1 x242 +1 x246 +1 x250 +1 x254 +1 x258 +1 x262 +1 x266 +1 x270 +1 x274 +1 x278 +1 x282 +1 x286 +1 x290 +1 x294 +1 x298 >= 9;
-1 x226 -1 x230 -1 x234 -1 x238 -1 x242 -1 x246 -1 x250 -1 x254 -1 x258 -1 x262 -1 x266 -1 x270 -1 x274 -1 x278 -1 x282 -1 x286 -1 x290 -1 x294 -1 x298 >= -10;
+1 x227 +1 x231 +1 x235 +1 x239 +1 x243 +1 x247 +1 x251 +1 x255 +1 x259 +1 x263 +1 x267 +1 x271 +1 x275 +1 x279 +1 x283 +1 x287 +1 x291 +1 x295 +1 x299 >= 9;
-1 x227 -1 x231 -1 x235 -1 x239 -1 x243 -1 x247 -1 x251 -1 x255 -1 x259 -1 x263 -1 x267 -1 x271 -1 x275 -1 x279 -1 x283 -1 x287 -1 x291 -1 x295 -1 x299 >= -10;
+1 x228 +1 x232 +1 x236 +1 x240 +1 x244 +1 x248 +1 x252 +1 x256 +1 x260 +1 x264 +1 x268 +1 x272 +1 x276 +1 x280 +1 x284 +1 x288 +1 x292 +1 x296 +1 x300 >= 9;
-1 x228 -1 x232 -1 x236 -1 x240 -1 x244 -1 x248 -1 x252 -1 x256 -1 x260 -1 x264 -1 x268 -1 x272 -1 x276 -1 x280 -1 x284 -1 x288 -1 x292 -1 x296 -1 x300 >= -10;
+1 x229 +1 x233 +1 x237 +1 x241 +1 x245 +1 x249 +1 x253 +1 x257 +1 x261 +1 x265 +1 x269 +1 x273 +1 x277 +1 x281 +1 x285 +1 x289 +1 x293 +1 x297 +1 x301 >= 9;
-1 x229 -1 x233 -1 x237 -1 x241 -1 x245 -1 x249 -1 x253 -1 x257 -1 x261 -1 x265 -1 x269 -1 x273 -1 x277 -1 x281 -1 x285 -1 x289 -1 x293 -1 x297 -1 x301 >= -10;
+1 x230 +1 x234 +1 x238 +1 x242 +1 x246 +1 x250 +1 x254 +1 x258 +1 x262 +1 x266 +1 x270 +1 x274 +1 x278 +1 x282 +1 x286 +1 x290 +1 x294 +1 x298 +1 x302 >= 9;
-1 x230 -1 x234 -1 x238 -1 x242 -1 x246 -1 x250 -1 x254 -1 x258 -1 x262 -1 x266 -1 x270 -1 x274 -1 x278 -1 x282 -1 x286 -1 x290 -1 x294 -1 x298 -1 x302 >= -10;
+1 x231 +1 x235 +1 x239 +1 x243 +1 x247 +1 x251 +1 x255 +1 x259 +1 x263 +1 x267 +1 x271 +1 x275 +1 x279 +1 x283 +1 x287 +1 x291 +1 x295 +1 x299 +1 x303 >= 9;
-1 x231 -1 x235 -1 x239 -1 x243 -1 x247 -1 x251 -1 x255 -1 x259 -1 x263 -1 x267 -1 x271 -1 x275 -1 x279 -1 x283 -1 x287 -1 x291 -1 x295 -1 x299 -1 x303 >= -10;
+1 x232 +1 x236 +1 x240 +1 x244 +1 x248 +1 x252 +1 x256 +1 x260 +1 x264 +1 x268 +1 x272 +1 x276 +1 x280 +1 x284 +1 x288 +1 x292 +1 x296 +1 x300 +1 x304 >= 9;
-1 x232 -1 x236 -1 x240 -1 x244 -1 x248 -1 x252 -1 x256 -1 x260 -1 x264 -1 x268 -1 x272 -1 x276 -1 x280 -1 x284 -1 x288 -1 x292 -1 x296 -1 x300 -1 x304 >= -10;
+1 x233 +1 x237 +1 x241 +1 x245 +1 x249 +1 x253 +1 x257 +1 x261 +1 x265 +1 x269 +1 x273 +1 x277 +1 x281 +1 x285 +1 x289 +1 x293 +1 x297 +1 x301 +1 x305 >= 9;
-1 x233 -1 x237 -1 x241 -1 x245 -1 x249 -1 x253 -1 x257 -1 x261 -1 x265 -1 x269 -1 x273 -1 x277 -1 x281 -1 x285 -1 x289 -1 x293 -1 x297 -1 x301 -1 x305 >= -10;
+1 x234 +1 x238 +1 x242 +1 x246 +1 x250 +1 x254 +1 x258 +1 x262 +1 x266 +1 x270 +1 x274 +1 x278 +1 x282 +1 x286 +1 x290 +1 x294 +1 x298 +1 x302 +1 x306 >= 9;
-1 x234 -1 x238 -1 x242 -1 x246 -1 x250 -1 x254 -1 x258 -1 x262 -1 x266 -1 x270 -1 x274 -1 x278 -1 x282 -1 x286 -1 x290 -1 x294 -1 x298 -1 x302 -1 x306 >= -10;
+1 x235 +1 x239 +1 x243 +1 x247 +1 x251 +1 x255 +1 x259 +1 x263 +1 x267 +1 x271 +1 x275 +1 x279 +1 x283 +1 x287 +1 x291 +1 x295 +1 x299 +1 x303 +1 x307 >= 9;
-1 x235 -1 x239 -1 x243 -1 x247 -1 x251 -1 x255 -1 x259 -1 x263 -1 x267 -1 x271 -1 x275 -1 x279 -1 x283 -1 x287 -1 x291 -1 x295 -1 x299 -1 x303 -1 x307 >= -10;
+1 x236 +1 x240 +1 x244 +1 x248 +1 x252 +1 x256 +1 x260 +1 x264 +1 x268 +1 x272 +1 x276 +1 x280 +1 x284 +1 x288 +1 x292 +1 x296 +1 x300 +1 x304 +1 x308 >= 9;
-1 x236 -1 x240 -1 x244 -1 x248 -1 x252 -1 x256 -1 x260 -1 x264 -1 x268 -1 x272 -1 x276 -1 x280 -1 x284 -1 x288 -1 x292 -1 x296 -1 x300 -1 x304 -1 x308 >= -10;
+1 x237 +1 x241 +1 x245 +1 x249 +1 x253 +1 x257 +1 x261 +1 x265 +1 x269 +1 x273 +1 x277 +1 x281 +1 x285 +1 x289 +1 x293 +1 x297 +1 x301 +1 x305 +1 x309 >= 9;
-1 x237 -1 x241 -1 x245 -1 x249 -1 x253 -1 x257 -1 x261 -1 x265 -1 x269 -1 x273 -1 x277 -1 x281 -1 x285 -1 x289 -1 x293 -1 x297 -1 x301 -1 x305 -1 x309 >= -10;
+1 x238 +1 x242 +1 x246 +1 x250 +1 x254 +1 x258 +1 x262 +1 x266 +1 x270 +1 x274 +1 x278 +1 x282 +1 x286 +1 x290 +1 x294 +1 x298 +1 x302 +1 x306 +1 x310 >= 9;
-1 x238 -1 x242 -1 x246 -1 x250 -1 x254 -1 x258 -1 x262 -1 x266 -1 x270 -1 x274 -1 x278 -1 x282 -1 x286 -1 x290 -1 x294 -1 x298 -1 x302 -1 x306 -1 x310 >= -10;
+1 x239 +1 x243 +1 x247 +1 x251 +1 x255 +1 x259 +1 x263 +1 x267 +1 x271 +1 x275 +1 x279 +1 x283 +1 x287 +1 x291 +1 x295 +1 x299 +1 x303 +1 x307 +1 x311 >= 9;
-1 x239 -1 x243 -1 x247 -1 x251 -1 x255 -1 x259 -1 x263 -1 x267 -1 x271 -1 x275 -1 x279 -1 x283 -1 x287 -1 x291 -1 x295 -1 x299 -1 x303 -1 x307 -1 x311 >= -10;
+1 x240 +1 x244 +1 x248 +1 x252 +1 x256 +1 x260 +1 x264 +1 x268 +1 x272 +1 x276 +1 x280 +1 x284 +1 x288 +1 x292 +1 x296 +1 x300 +1 x304 +1 x308 +1 x312 >= 9;
-1 x240 -1 x244 -1 x248 -1 x252 -1 x256 -1 x260 -1 x264 -1 x268 -1 x272 -1 x276 -1 x280 -1 x284 -1 x288 -1 x292 -1 x296 -1 x300 -1 x304 -1 x308 -1 x312 >= -10;
+1 x241 +1 x245 +1 x249 +1 x253 +1 x257 +1 x261 +1 x265 +1 x269 +1 x273 +1 x277 +1 x281 +1 x285 +1 x289 +1 x293 +1 x297 +1 x301 +1 x305 +1 x309 +1 x313 >= 9;
-1 x241 -1 x245 -1 x249 -1 x253 -1 x257 -1 x261 -1 x265 -1 x269 -1 x273 -1 x277 -1 x281 -1 x285 -1 x289 -1 x293 -1 x297 -1 x301 -1 x305 -1 x309 -1 x313 >= -10;
+1 x242 +1 x246 +1 x250 +1 x254 +1 x258 +1 x262 +1 x266 +1 x270 +1 x274 +1 x278 +1 x282 +1 x286 +1 x290 +1 x294 +1 x298 +1 x302 +1 x306 +1 x310 +1 x314 >= 9;
-1 x242 -1 x246 -1 x250 -1 x254 -1 x258 -1 x262 -1 x266 -1 x270 -1 x274 -1 x278 -1 x282 -1 x286 -1 x290 -1 x294 -1 x298 -1 x302 -1 x306 -1 x310 -1 x314 >= -10;
+1 x243 +1 x247 +1 x251 +1 x255 +1 x259 +1 x263 +1 x267 +1 x271 +1 x275 +1 x279 +1 x283 +1 x287 +1 x291 +1 x295 +1 x299 +1 x303 +1 x307 +1 x311 +1 x315 >= 9;
-1 x243 -1 x247 -1 x251 -1 x255 -1 x259 -1 x263 -1 x267 -1 x271 -1 x275 -1 x279 -1 x283 -1 x287 -1 x291 -1 x295 -1 x299 -1 x303 -1 x307 -1 x311 -1 x315 >= -10;
+1 x244 +1 x248 +1 x252 +1 x256 +1 x260 +1 x264 +1 x268 +1 x272 +1 x276 +1 x280 +1 x284 +1 x288 +1 x292 +1 x296 +1 x300 +1 x304 +1 x308 +1 x312 +1 x316 >= 9;
-1 x244 -1 x248 -1 x252 -1 x256 -1 x260 -1 x264 -1 x268 -1 x272 -1 x276 -1 x280 -1 x284 -1 x288 -1 x292 -1 x296 -1 x300 -1 x304 -1 x308 -1 x312 -1 x316 >= -10;
+1 x245 +1 x249 +1 x253 +1 x257 +1 x261 +1 x265 +1 x269 +1 x273 +1 x277 +1 x281 +1 x285 +1 x289 +1 x293 +1 x297 +1 x301 +1 x305 +1 x309 +1 x313 +1 x317 >= 9;
-1 x245 -1 x249 -1 x253 -1 x257 -1 x261 -1 x265 -1 x269 -1 x273 -1 x277 -1 x281 -1 x285 -1 x289 -1 x293 -1 x297 -1 x301 -1 x305 -1 x309 -1 x313 -1 x317 >= -10;
+1 x246 +1 x250 +1 x254 +1 x258 +1 x262 +1 x266 +1 x270 +1 x274 +1 x278 +1 x282 +1 x286 +1 x290 +1 x294 +1 x298 +1 x302 +1 x306 +1 x310 +1 x314 +1 x318 >= 9;
-1 x246 -1 x250 -1 x254 -1 x258 -1 x262 -1 x266 -1 x270 -1 x274 -1 x278 -1 x282 -1 x286 -1 x290 -1 x294 -1 x298 -1 x302 -1 x306 -1 x310 -1 x314 -1 x318 >= -10;
+1 x247 +1 x251 +1 x255 +1 x259 +1 x263 +1 x267 +1 x271 +1 x275 +1 x279 +1 x283 +1 x287 +1 x291 +1 x295 +1 x299 +1 x303 +1 x307 +1 x311 +1 x315 +1 x319 >= 9;
-1 x247 -1 x251 -1 x255 -1 x259 -1 x263 -1 x267 -1 x271 -1 x275 -1 x279 -1 x283 -1 x287 -1 x291 -1 x295 -1 x299 -1 x303 -1 x307 -1 x311 -1 x315 -1 x319 >= -10;
+1 x248 +1 x252 +1 x256 +1 x260 +1 x264 +1 x268 +1 x272 +1 x276 +1 x280 +1 x284 +1 x288 +1 x292 +1 x296 +1 x300 +1 x304 +1 x308 +1 x312 +1 x316 +1 x320 >= 9;
-1 x248 -1 x252 -1 x256 -1 x260 -1 x264 -1 x268 -1 x272 -1 x276 -1 x280 -1 x284 -1 x288 -1 x292 -1 x296 -1 x300 -1 x304 -1 x308 -1 x312 -1 x316 -1 x320 >= -10;
+1 x249 +1 x253 +1 x257 +1 x261 +1 x265 +1 x269 +1 x273 +1 x277 +1 x281 +1 x285 +1 x289 +1 x293 +1 x297 +1 x301 +1 x305 +1 x309 +1 x313 +1 x317 +1 x321 >= 9;
-1 x249 -1 x253 -1 x257 -1 x261 -1 x265 -1 x269 -1 x273 -1 x277 -1 x281 -1 x285 -1 x289 -1 x293 -1 x297 -1 x301 -1 x305 -1 x309 -1 x313 -1 x317 -1 x321 >= -10;
+1 x250 +1 x254 +1 x258 +1 x262 +1 x266 +1 x270 +1 x274 +1 x278 +1 x282 +1 x286 +1 x290 +1 x294 +1 x298 +1 x302 +1 x306 +1 x310 +1 x314 +1 x318 +1 x322 >= 9;
-1 x250 -1 x254 -1 x258 -1 x262 -1 x266 -1 x270 -1 x274 -1 x278 -1 x282 -1 x286 -1 x290 -1 x294 -1 x298 -1 x302 -1 x306 -1 x310 -1 x314 -1 x318 -1 x322 >= -10;
+1 x251 +1 x255 +1 x259 +1 x263 +1 x267 +1 x271 +1 x275 +1 x279 +1 x283 +1 x287 +1 x291 +1 x295 +1 x299 +1 x303 +1 x307 +1 x311 +1 x315 +1 x319 +1 x323 >= 9;
-1 x251 -1 x255 -1 x259 -1 x263 -1 x267 -1 x271 -1 x275 -1 x279 -1 x283 -1 x287 -1 x291 -1 x295 -1 x299 -1 x303 -1 x307 -1 x311 -1 x315 -1 x319 -1 x323 >= -10;
+1 x252 +1 x256 +1 x260 +1 x264 +1 x268 +1 x272 +1 x276 +1 x280 +1 x284 +1 x288 +1 x292 +1 x296 +1 x300 +1 x304 +1 x308 +1 x312 +1 x316 +1 x320 +1 x324 >= 9;
-1 x252 -1 x256 -1 x260 -1 x264 -1 x268 -1 x272 -1 x276 -1 x280 -1 x284 -1 x288 -1 x292 -1 x296 -1 x300 -1 x304 -1 x308 -1 x312 -1 x316 -1 x320 -1 x324 >= -10;
+1 x253 +1 x257 +1 x261 +1 x265 +1 x269 +1 x273 +1 x277 +1 x281 +1 x285 +1 x289 +1 x293 +1 x297 +1 x301 +1 x305 +1 x309 +1 x313 +1 x317 +1 x321 +1 x325 >= 9;
-1 x253 -1 x257 -1 x261 -1 x265 -1 x269 -1 x273 -1 x277 -1 x281 -1 x285 -1 x289 -1 x293 -1 x297 -1 x301 -1 x305 -1 x309 -1 x313 -1 x317 -1 x321 -1 x325 >= -10;
+1 x254 +1 x258 +1 x262 +1 x266 +1 x270 +1 x274 +1 x278 +1 x282 +1 x286 +1 x290 +1 x294 +1 x298 +1 x302 +1 x306 +1 x310 +1 x314 +1 x318 +1 x322 +1 x326 >= 9;
-1 x254 -1 x258 -1 x262 -1 x266 -1 x270 -1 x274 -1 x278 -1 x282 -1 x286 -1 x290 -1 x294 -1 x298 -1 x302 -1 x306 -1 x310 -1 x314 -1 x318 -1 x322 -1 x326 >= -10;
+1 x255 +1 x259 +1 x263 +1 x267 +1 x271 +1 x275 +1 x279 +1 x283 +1 x287 +1 x291 +1 x295 +1 x299 +1 x303 +1 x307 +1 x311 +1 x315 +1 x319 +1 x323 +1 x327 >= 9;
-1 x255 -1 x259 -1 x263 -1 x267 -1 x271 -1 x275 -1 x279 -1 x283 -1 x287 -1 x291 -1 x295 -1 x299 -1 x303 -1 x307 -1 x311 -1 x315 -1 x319 -1 x323 -1 x327 >= -10;
+1 x256 +1 x260 +1 x264 +1 x268 +1 x272 +1 x276 +1 x280 +1 x284 +1 x288 +1 x292 +1 x296 +1 x300 +1 x304 +1 x308 +1 x312 +1 x316 +1 x320 +1 x324 +1 x328 >= 9;
-1 x256 -1 x260 -1 x264 -1 x268 -1 x272 -1 x276 -1 x280 -1 x284 -1 x288 -1 x292 -1 x296 -1 x300 -1 x304 -1 x308 -1 x312 -1 x316 -1 x320 -1 x324 -1 x328 >= -10;
+1 x257 +1 x261 +1 x265 +1 x269 +1 x273 +1 x277 +1 x281 +1 x285 +1 x289 +1 x293 +1 x297 +1 x301 +1 x305 +1 x309 +1 x313 +1 x317 +1 x321 +1 x325 +1 x329 >= 9;
-1 x257 -1 x261 -1 x265 -1 x269 -1 x273 -1 x277 -1 x281 -1 x285 -1 x289 -1 x293 -1 x297 -1 x301 -1 x305 -1 x309 -1 x313 -1 x317 -1 x321 -1 x325 -1 x329 >= -10;
+1 x258 +1 x262 +1 x266 +1 x270 +1 x274 +1 x278 +1 x282 +1 x286 +1 x290 +1 x294 +1 x298 +1 x302 +1 x306 +1 x310 +1 x314 +1 x318 +1 x322 +1 x326 +1 x330 >= 9;
-1 x258 -1 x262 -1 x266 -1 x270 -1 x274 -1 x278 -1 x282 -1 x286 -1 x290 -1 x294 -1 x298 -1 x302 -1 x306 -1 x310 -1 x314 -1 x318 -1 x322 -1 x326 -1 x330 >= -10;
+1 x259 +1 x263 +1 x267 +1 x271 +1 x275 +1 x279 +1 x283 +1 x287 +1 x291 +1 x295 +1 x299 +1 x303 +1 x307 +1 x311 +1 x315 +1 x319 +1 x323 +1 x327 +1 x331 >= 9;
-1 x259 -1 x263 -1 x267 -1 x271 -1 x275 -1 x279 -1 x283 -1 x287 -1 x291 -1 x295 -1 x299 -1 x303 -1 x307 -1 x311 -1 x315 -1 x319 -1 x323 -1 x327 -1 x331 >= -10;
+1 x260 +1 x264 +1 x268 +1 x272 +1 x276 +1 x280 +1 x284 +1 x288 +1 x292 +1 x296 +1 x300 +1 x304 +1 x308 +1 x312 +1 x316 +1 x320 +1 x324 +1 x328 +1 x332 >= 9;
-1 x260 -1 x264 -1 x268 -1 x272 -1 x276 -1 x280 -1 x284 -1 x288 -1 x292 -1 x296 -1 x300 -1 x304 -1 x308 -1 x312 -1 x316 -1 x320 -1 x324 -1 x328 -1 x332 >= -10;
+1 x261 +1 x265 +1 x269 +1 x273 +1 x277 +1 x281 +1 x285 +1 x289 +1 x293 +1 x297 +1 x301 +1 x305 +1 x309 +1 x313 +1 x317 +1 x321 +1 x325 +1 x329 +1 x333 >= 9;
-1 x261 -1 x265 -1 x269 -1 x273 -1 x277 -1 x281 -1 x285 -1 x289 -1 x293 -1 x297 -1 x301 -1 x305 -1 x309 -1 x313 -1 x317 -1 x321 -1 x325 -1 x329 -1 x333 >= -10;
+1 x262 +1 x266 +1 x270 +1 x274 +1 x278 +1 x282 +1 x286 +1 x290 +1 x294 +1 x298 +1 x302 +1 x306 +1 x310 +1 x314 +1 x318 +1 x322 +1 x326 +1 x330 +1 x334 >= 9;
-1 x262 -1 x266 -1 x270 -1 x274 -1 x278 -1 x282 -1 x286 -1 x290 -1 x294 -1 x298 -1 x302 -1 x306 -1 x310 -1 x314 -1 x318 -1 x322 -1 x326 -1 x330 -1 x334 >= -10;
+1 x263 +1 x267 +1 x271 +1 x275 +1 x279 +1 x283 +1 x287 +1 x291 +1 x295 +1 x299 +1 x303 +1 x307 +1 x311 +1 x315 +1 x319 +1 x323 +1 x327 +1 x331 +1 x335 >= 9;
-1 x263 -1 x267 -1 x271 -1 x275 -1 x279 -1 x283 -1 x287 -1 x291 -1 x295 -1 x299 -1 x303 -1 x307 -1 x311 -1 x315 -1 x319 -1 x323 -1 x327 -1 x331 -1 x335 >= -10;
+1 x264 +1 x268 +1 x272 +1 x276 +1 x280 +1 x284 +1 x288 +1 x292 +1 x296 +1 x300 +1 x304 +1 x308 +1 x312 +1 x316 +1 x320 +1 x324 +1 x328 +1 x332 +1 x336 >= 9;
-1 x264 -1 x268 -1 x272 -1 x276 -1 x280 -1 x284 -1 x288 -1 x292 -1 x296 -1 x300 -1 x304 -1 x308 -1 x312 -1 x316 -1 x320 -1 x324 -1 x328 -1 x332 -1 x336 >= -10;
+1 x265 +1 x269 +1 x273 +1 x277 +1 x281 +1 x285 +1 x289 +1 x293 +1 x297 +1 x301 +1 x305 +1 x309 +1 x313 +1 x317 +1 x321 +1 x325 +1 x329 +1 x333 +1 x337 >= 9;
-1 x265 -1 x269 -1 x273 -1 x277 -1 x281 -1 x285 -1 x289 -1 x293 -1 x297 -1 x301 -1 x305 -1 x309 -1 x313 -1 x317 -1 x321 -1 x325 -1 x329 -1 x333 -1 x337 >= -10;
+1 x266 +1 x270 +1 x274 +1 x278 +1 x282 +1 x286 +1 x290 +1 x294 +1 x298 +1 x302 +1 x306 +1 x310 +1 x314 +1 x318 +1 x322 +1 x326 +1 x330 +1 x334 +1 x338 >= 9;
-1 x266 -1 x270 -1 x274 -1 x278 -1 x282 -1 x286 -1 x290 -1 x294 -1 x298 -1 x302 -1 x306 -1 x310 -1 x314 -1 x318 -1 x322 -1 x326 -1 x330 -1 x334 -1 x338 >= -10;
+1 x267 +1 x271 +1 x275 +1 x279 +1 x283 +1 x287 +1 x291 +1 x295 +1 x299 +1 x303 +1 x307 +1 x311 +1 x315 +1 x319 +1 x323 +1 x327 +1 x331 +1 x335 +1 x339 >= 9;
-1 x267 -1 x271 -1 x275 -1 x279 -1 x283 -1 x287 -1 x291 -1 x295 -1 x299 -1 x303 -1 x307 -1 x311 -1 x315 -1 x319 -1 x323 -1 x327 -1 x331 -1 x335 -1 x339 >= -10;
+1 x268 +1 x272 +1 x276 +1 x280 +1 x284 +1 x288 +1 x292 +1 x296 +1 x300 +1 x304 +1 x308 +1 x312 +1 x316 +1 x320 +1 x324 +1 x328 +1 x332 +1 x336 +1 x340 >= 9;
-1 x268 -1 x272 -1 x276 -1 x280 -1 x284 -1 x288 -1 x292 -1 x296 -1 x300 -1 x304 -1 x308 -1 x312 -1 x316 -1 x320 -1 x324 -1 x328 -1 x332 -1 x336 -1 x340 >= -10;
+1 x269 +1 x273 +1 x277 +1 x281 +1 x285 +1 x289 +1 x293 +1 x297 +1 x301 +1 x305 +1 x309 +1 x313 +1 x317 +1 x321 +1 x325 +1 x329 +1 x333 +1 x337 +1 x341 >= 9;
-1 x269 -1 x273 -1 x277 -1 x281 -1 x285 -1 x289 -1 x293 -1 x297 -1 x301 -1 x305 -1 x309 -1 x313 -1 x317 -1 x321 -1 x325 -1 x329 -1 x333 -1 x337 -1 x341 >= -10;
+1 x270 +1 x274 +1 x278 +1 x282 +1 x286 +1 x290 +1 x294 +1 x298 +1 x302 +1 x306 +1 x310 +1 x314 +1 x318 +1 x322 +1 x326 +1 x330 +1 x334 +1 x338 +1 x342 >= 9;
-1 x270 -1 x274 -1 x278 -1 x282 -1 x286 -1 x290 -1 x294 -1 x298 -1 x302 -1 x306 -1 x310 -1 x314 -1 x318 -1 x322 -1 x326 -1 x330 -1 x334 -1 x338 -1 x342 >= -10;
+1 x271 +1 x275 +1 x279 +1 x283 +1 x287 +1 x291 +1 x295 +1 x299 +1 x303 +1 x307 +1 x311 +1 x315 +1 x319 +1 x323 +1 x327 +1 x331 +1 x335 +1 x339 +1 x343 >= 9;
-1 x271 -1 x275 -1 x279 -1 x283 -1 x287 -1 x291 -1 x295 -1 x299 -1 x303 -1 x307 -1 x311 -1 x315 -1 x319 -1 x323 -1 x327 -1 x331 -1 x335 -1 x339 -1 x343 >= -10;
+1 x272 +1 x276 +1 x280 +1 x284 +1 x288 +1 x292 +1 x296 +1 x300 +1 x304 +1 x308 +1 x312 +1 x316 +1 x320 +1 x324 +1 x328 +1 x332 +1 x336 +1 x340 +1 x344 >= 9;
-1 x272 -1 x276 -1 x280 -1 x284 -1 x288 -1 x292 -1 x296 -1 x300 -1 x304 -1 x308 -1 x312 -1 x316 -1 x320 -1 x324 -1 x328 -1 x332 -1 x336 -1 x340 -1 x344 >= -10;
+1 x1 +1 x6 +1 x11 +1 x16 +1 x21 +1 x26 +1 x31 +1 x36 +1 x41 +1 x46 +1 x51 +1 x56 +1 x61 +1 x66 +1 x71 +1 x76 +1 x81 +1 x86 +1 x91 >= 9;
-1 x1 -1 x6 -1 x11 -1 x16 -1 x21 -1 x26 -1 x31 -1 x36 -1 x41 -1 x46 -1 x51 -1 x56 -1 x61 -1 x66 -1 x71 -1 x76 -1 x81 -1 x86 -1 x91 >= -10;
+1 x2 +1 x7 +1 x12 +1 x17 +1 x22 +1 x27 +1 x32 +1 x37 +1 x42 +1 x47 +1 x52 +1 x57 +1 x62 +1 x67 +1 x72 +1 x77 +1 x82 +1 x87 +1 x92 >= 9;
-1 x2 -1 x7 -1 x12 -1 x17 -1 x22 -1 x27 -1 x32 -1 x37 -1 x42 -1 x47 -1 x52 -1 x57 -1 x62 -1 x67 -1 x72 -1 x77 -1 x82 -1 x87 -1 x92 >= -10;
+1 x3 +1 x8 +1 x13 +1 x18 +1 x23 +1 x28 +1 x33 +1 x38 +1 x43 +1 x48 +1 x53 +1 x58 +1 x63 +1 x68 +1 x73 +1 x78 +1 x83 +1 x88 +1 x93 >= 9;
-1 x3 -1 x8 -1 x13 -1 x18 -1 x23 -1 x28 -1 x33 -1 x38 -1 x43 -1 x48 -1 x53 -1 x58 -1 x63 -1 x68 -1 x73 -1 x78 -1 x83 -1 x88 -1 x93 >= -10;
+1 x4 +1 x9 +1 x14 +1 x19 +1 x24 +1 x29 +1 x34 +1 x39 +1 x44 +1 x49 +1 x54 +1 x59 +1 x64 +1 x69 +1 x74 +1 x79 +1 x84 +1 x89 +1 x94 >= 9;
-1 x4 -1 x9 -1 x14 -1 x19 -1 x24 -1 x29 -1 x34 -1 x39 -1 x44 -1 x49 -1 x54 -1 x59 -1 x64 -1 x69 -1 x74 -1 x79 -1 x84 -1 x89 -1 x94 >= -10;
+1 x5 +1 x10 +1 x15 +1 x20 +1 x25 +1 x30 +1 x35 +1 x40 +1 x45 +1 x50 +1 x55 +1 x60 +1 x65 +1 x70 +1 x75 +1 x80 +1 x85 +1 x90 +1 x95 >= 9;
-1 x5 -1 x10 -1 x15 -1 x20 -1 x25 -1 x30 -1 x35 -1 x40 -1 x45 -1 x50 -1 x55 -1 x60 -1 x65 -1 x70 -1 x75 -1 x80 -1 x85 -1 x90 -1 x95 >= -10;
+1 x6 +1 x11 +1 x16 +1 x21 +1 x26 +1 x31 +1 x36 +1 x41 +1 x46 +1 x51 +1 x56 +1 x61 +1 x66 +1 x71 +1 x76 +1 x81 +1 x86 +1 x91 +1 x96 >= 9;
-1 x6 -1 x11 -1 x16 -1 x21 -1 x26 -1 x31 -1 x36 -1 x41 -1 x46 -1 x51 -1 x56 -1 x61 -1 x66 -1 x71 -1 x76 -1 x81 -1 x86 -1 x91 -1 x96 >= -10;
+1 x7 +1 x12 +1 x17 +1 x22 +1 x27 +1 x32 +1 x37 +1 x42 +1 x47 +1 x52 +1 x57 +1 x62 +1 x67 +1 x72 +1 x77 +1 x82 +1 x87 +1 x92 +1 x97 >= 9;
-1 x7 -1 x12 -1 x17 -1 x22 -1 x27 -1 x32 -1 x37 -1 x42 -1 x47 -1 x52 -1 x57 -1 x62 -1 x67 -1 x72 -1 x77 -1 x82 -1 x87 -1 x92 -1 x97 >= -10;
+1 x8 +1 x13 +1 x18 +1 x23 +1 x28 +1 x33 +1 x38 +1 x43 +1 x48 +1 x53 +1 x58 +1 x63 +1 x68 +1 x73 +1 x78 +1 x83 +1 x88 +1 x93 +1 x98 >= 9;
-1 x8 -1 x13 -1 x18 -1 x23 -1 x28 -1 x33 -1 x38 -1 x43 -1 x48 -1 x53 -1 x58 -1 x63 -1 x68 -1 x73 -1 x78 -1 x83 -1 x88 -1 x93 -1 x98 >= -10;
+1 x9 +1 x14 +1 x19 +1 x24 +1 x29 +1 x34 +1 x39 +1 x44 +1 x49 +1 x54 +1 x59 +1 x64 +1 x69 +1 x74 +1 x79 +1 x84 +1 x89 +1 x94 +1 x99 >= 9;
-1 x9 -1 x14 -1 x19 -1 x24 -1 x29 -1 x34 -1 x39 -1 x44 -1 x49 -1 x54 -1 x59 -1 x64 -1 x69 -1 x74 -1 x79 -1 x84 -1 x89 -1 x94 -1 x99 >= -10;
+1 x10 +1 x15 +1 x20 +1 x25 +1 x30 +1 x35 +1 x40 +1 x45 +1 x50 +1 x55 +1 x60 +1 x65 +1 x70 +1 x75 +1 x80 +1 x85 +1 x90 +1 x95 +1 x100 >= 9;
-1 x10 -1 x15 -1 x20 -1 x25 -1 x30 -1 x35 -1 x40 -1 x45 -1 x50 -1 x55 -1 x60 -1 x65 -1 x70 -1 x75 -1 x80 -1 x85 -1 x90 -1 x95 -1 x100 >= -10;
+1 x11 +1 x16 +1 x21 +1 x26 +1 x31 +1 x36 +1 x41 +1 x46 +1 x51 +1 x56 +1 x61 +1 x66 +1 x71 +1 x76 +1 x81 +1 x86 +1 x91 +1 x96 +1 x101 >= 9;
-1 x11 -1 x16 -1 x21 -1 x26 -1 x31 -1 x36 -1 x41 -1 x46 -1 x51 -1 x56 -1 x61 -1 x66 -1 x71 -1 x76 -1 x81 -1 x86 -1 x91 -1 x96 -1 x101 >= -10;
+1 x12 +1 x17 +1 x22 +1 x27 +1 x32 +1 x37 +1 x42 +1 x47 +1 x52 +1 x57 +1 x62 +1 x67 +1 x72 +1 x77 +1 x82 +1 x87 +1 x92 +1 x97 +1 x102 >= 9;
-1 x12 -1 x17 -1 x22 -1 x27 -1 x32 -1 x37 -1 x42 -1 x47 -1 x52 -1 x57 -1 x62 -1 x67 -1 x72 -1 x77 -1 x82 -1 x87 -1 x92 -1 x97 -1 x102 >= -10;
+1 x13 +1 x18 +1 x23 +1 x28 +1 x33 +1 x38 +1 x43 +1 x48 +1 x53 +1 x58 +1 x63 +1 x68 +1 x73 +1 x78 +1 x83 +1 x88 +1 x93 +1 x98 +1 x103 >= 9;
-1 x13 -1 x18 -1 x23 -1 x28 -1 x33 -1 x38 -1 x43 -1 x48 -1 x53 -1 x58 -1 x63 -1 x68 -1 x73 -1 x78 -1 x83 -1 x88 -1 x93 -1 x98 -1 x103 >= -10;
+1 x14 +1 x19 +1 x24 +1 x29 +1 x34 +1 x39 +1 x44 +1 x49 +1 x54 +1 x59 +1 x64 +1 x69 +1 x74 +1 x79 +1 x84 +1 x89 +1 x94 +1 x99 +1 x104 >= 9;
-1 x14 -1 x19 -1 x24 -1 x29 -1 x34 -1 x39 -1 x44 -1 x49 -1 x54 -1 x59 -1 x64 -1 x69 -1 x74 -1 x79 -1 x84 -1 x89 -1 x94 -1 x99 -1 x104 >= -10;
+1 x15 +1 x20 +1 x25 +1 x30 +1 x35 +1 x40 +1 x45 +1 x50 +1 x55 +1 x60 +1 x65 +1 x70 +1 x75 +1 x80 +1 x85 +1 x90 +1 x95 +1 x100 +1 x105 >= 9;
-1 x15 -1 x20 -1 x25 -1 x30 -1 x35 -1 x40 -1 x45 -1 x50 -1 x55 -1 x60 -1 x65 -1 x70 -1 x75 -1 x80 -1 x85 -1 x90 -1 x95 -1 x100 -1 x105 >= -10;
+1 x16 +1 x21 +1 x26 +1 x31 +1 x36 +1 x41 +1 x46 +1 x51 +1 x56 +1 x61 +1 x66 +1 x71 +1 x76 +1 x81 +1 x86 +1 x91 +1 x96 +1 x101 +1 x106 >= 9;
-1 x16 -1 x21 -1 x26 -1 x31 -1 x36 -1 x41 -1 x46 -1 x51 -1 x56 -1 x61 -1 x66 -1 x71 -1 x76 -1 x81 -1 x86 -1 x91 -1 x96 -1 x101 -1 x106 >= -10;
+1 x17 +1 x22 +1 x27 +1 x32 +1 x37 +1 x42 +1 x47 +1 x52 +1 x57 +1 x62 +1 x67 +1 x72 +1 x77 +1 x82 +1 x87 +1 x92 +1 x97 +1 x102 +1 x107 >= 9;
-1 x17 -1 x22 -1 x27 -1 x32 -1 x37 -1 x42 -1 x47 -1 x52 -1 x57 -1 x62 -1 x67 -1 x72 -1 x77 -1 x82 -1 x87 -1 x92 -1 x97 -1 x102 -1 x107 >= -10;
+1 x18 +1 x23 +1 x28 +1 x33 +1 x38 +1 x43 +1 x48 +1 x53 +1 x58 +1 x63 +1 x68 +1 x73 +1 x78 +1 x83 +1 x88 +1 x93 +1 x98 +1 x103 +1 x108 >= 9;
-1 x18 -1 x23 -1 x28 -1 x33 -1 x38 -1 x43 -1 x48 -1 x53 -1 x58 -1 x63 -1 x68 -1 x73 -1 x78 -1 x83 -1 x88 -1 x93 -1 x98 -1 x103 -1 x108 >= -10;
+1 x19 +1 x24 +1 x29 +1 x34 +1 x39 +1 x44 +1 x49 +1 x54 +1 x59 +1 x64 +1 x69 +1 x74 +1 x79 +1 x84 +1 x89 +1 x94 +1 x99 +1 x104 +1 x109 >= 9;
-1 x19 -1 x24 -1 x29 -1 x34 -1 x39 -1 x44 -1 x49 -1 x54 -1 x59 -1 x64 -1 x69 -1 x74 -1 x79 -1 x84 -1 x89 -1 x94 -1 x99 -1 x104 -1 x109 >= -10;
+1 x20 +1 x25 +1 x30 +1 x35 +1 x40 +1 x45 +1 x50 +1 x55 +1 x60 +1 x65 +1 x70 +1 x75 +1 x80 +1 x85 +1 x90 +1 x95 +1 x100 +1 x105 +1 x110 >= 9;
-1 x20 -1 x25 -1 x30 -1 x35 -1 x40 -1 x45 -1 x50 -1 x55 -1 x60 -1 x65 -1 x70 -1 x75 -1 x80 -1 x85 -1 x90 -1 x95 -1 x100 -1 x105 -1 x110 >= -10;
+1 x21 +1 x26 +1 x31 +1 x36 +1 x41 +1 x46 +1 x51 +1 x56 +1 x61 +1 x66 +1 x71 +1 x76 +1 x81 +1 x86 +1 x91 +1 x96 +1 x101 +1 x106 +1 x111 >= 9;
-1 x21 -1 x26 -1 x31 -1 x36 -1 x41 -1 x46 -1 x51 -1 x56 -1 x61 -1 x66 -1 x71 -1 x76 -1 x81 -1 x86 -1 x91 -1 x96 -1 x101 -1 x106 -1 x111 >= -10;
+1 x22 +1 x27 +1 x32 +1 x37 +1 x42 +1 x47 +1 x52 +1 x57 +1 x62 +1 x67 +1 x72 +1 x77 +1 x82 +1 x87 +1 x92 +1 x97 +1 x102 +1 x107 +1 x112 >= 9;
-1 x22 -1 x27 -1 x32 -1 x37 -1 x42 -1 x47 -1 x52 -1 x57 -1 x62 -1 x67 -1 x72 -1 x77 -1 x82 -1 x87 -1 x92 -1 x97 -1 x102 -1 x107 -1 x112 >= -10;
+1 x23 +1 x28 +1 x33 +1 x38 +1 x43 +1 x48 +1 x53 +1 x58 +1 x63 +1 x68 +1 x73 +1 x78 +1 x83 +1 x88 +1 x93 +1 x98 +1 x103 +1 x108 +1 x113 >= 9;
-1 x23 -1 x28 -1 x33 -1 x38 -1 x43 -1 x48 -1 x53 -1 x58 -1 x63 -1 x68 -1 x73 -1 x78 -1 x83 -1 x88 -1 x93 -1 x98 -1 x103 -1 x108 -1 x113 >= -10;
+1 x24 +1 x29 +1 x34 +1 x39 +1 x44 +1 x49 +1 x54 +1 x59 +1 x64 +1 x69 +1 x74 +1 x79 +1 x84 +1 x89 +1 x94 +1 x99 +1 x104 +1 x109 +1 x114 >= 9;
-1 x24 -1 x29 -1 x34 -1 x39 -1 x44 -1 x49 -1 x54 -1 x59 -1 x64 -1 x69 -1 x74 -1 x79 -1 x84 -1 x89 -1 x94 -1 x99 -1 x104 -1 x109 -1 x114 >= -10;
+1 x25 +1 x30 +1 x35 +1 x40 +1 x45 +1 x50 +1 x55 +1 x60 +1 x65 +1 x70 +1 x75 +1 x80 +1 x85 +1 x90 +1 x95 +1 x100 +1 x105 +1 x110 +1 x115 >= 9;
-1 x25 -1 x30 -1 x35 -1 x40 -1 x45 -1 x50 -1 x55 -1 x60 -1 x65 -1 x70 -1 x75 -1 x80 -1 x85 -1 x90 -1 x95 -1 x100 -1 x105 -1 x110 -1 x115 >= -10;
+1 x26 +1 x31 +1 x36 +1 x41 +1 x46 +1 x51 +1 x56 +1 x61 +1 x66 +1 x71 +1 x76 +1 x81 +1 x86 +1 x91 +1 x96 +1 x101 +1 x106 +1 x111 +1 x116 >= 9;
-1 x26 -1 x31 -1 x36 -1 x41 -1 x46 -1 x51 -1 x56 -1 x61 -1 x66 -1 x71 -1 x76 -1 x81 -1 x86 -1 x91 -1 x96 -1 x101 -1 x106 -1 x111 -1 x116 >= -10;
+1 x27 +1 x32 +1 x37 +1 x42 +1 x47 +1 x52 +1 x57 +1 x62 +1 x67 +1 x72 +1 x77 +1 x82 +1 x87 +1 x92 +1 x97 +1 x102 +1 x107 +1 x112 +1 x117 >= 9;
-1 x27 -1 x32 -1 x37 -1 x42 -1 x47 -1 x52 -1 x57 -1 x62 -1 x67 -1 x72 -1 x77 -1 x82 -1 x87 -1 x92 -1 x97 -1 x102 -1 x107 -1 x112 -1 x117 >= -10;
+1 x28 +1 x33 +1 x38 +1 x43 +1 x48 +1 x53 +1 x58 +1 x63 +1 x68 +1 x73 +1 x78 +1 x83 +1 x88 +1 x93 +1 x98 +1 x103 +1 x108 +1 x113 +1 x118 >= 9;
-1 x28 -1 x33 -1 x38 -1 x43 -1 x48 -1 x53 -1 x58 -1 x63 -1 x68 -1 x73 -1 x78 -1 x83 -1 x88 -1 x93 -1 x98 -1 x103 -1 x108 -1 x113 -1 x118 >= -10;
+1 x29 +1 x34 +1 x39 +1 x44 +1 x49 +1 x54 +1 x59 +1 x64 +1 x69 +1 x74 +1 x79 +1 x84 +1 x89 +1 x94 +1 x99 +1 x104 +1 x109 +1 x114 +1 x119 >= 9;
-1 x29 -1 x34 -1 x39 -1 x44 -1 x49 -1 x54 -1 x59 -1 x64 -1 x69 -1 x74 -1 x79 -1 x84 -1 x89 -1 x94 -1 x99 -1 x104 -1 x109 -1 x114 -1 x119 >= -10;
+1 x30 +1 x35 +1 x40 +1 x45 +1 x50 +1 x55 +1 x60 +1 x65 +1 x70 +1 x75 +1 x80 +1 x85 +1 x90 +1 x95 +1 x100 +1 x105 +1 x110 +1 x115 +1 x120 >= 9;
-1 x30 -1 x35 -1 x40 -1 x45 -1 x50 -1 x55 -1 x60 -1 x65 -1 x70 -1 x75 -1 x80 -1 x85 -1 x90 -1 x95 -1 x100 -1 x105 -1 x110 -1 x115 -1 x120 >= -10;
+1 x31 +1 x36 +1 x41 +1 x46 +1 x51 +1 x56 +1 x61 +1 x66 +1 x71 +1 x76 +1 x81 +1 x86 +1 x91 +1 x96 +1 x101 +1 x106 +1 x111 +1 x116 +1 x121 >= 9;
-1 x31 -1 x36 -1 x41 -1 x46 -1 x51 -1 x56 -1 x61 -1 x66 -1 x71 -1 x76 -1 x81 -1 x86 -1 x91 -1 x96 -1 x101 -1 x106 -1 x111 -1 x116 -1 x121 >= -10;
+1 x32 +1 x37 +1 x42 +1 x47 +1 x52 +1 x57 +1 x62 +1 x67 +1 x72 +1 x77 +1 x82 +1 x87 +1 x92 +1 x97 +1 x102 +1 x107 +1 x112 +1 x117 +1 x122 >= 9;
-1 x32 -1 x37 -1 x42 -1 x47 -1 x52 -1 x57 -1 x62 -1 x67 -1 x72 -1 x77 -1 x82 -1 x87 -1 x92 -1 x97 -1 x102 -1 x107 -1 x112 -1 x117 -1 x122 >= -10;
+1 x33 +1 x38 +1 x43 +1 x48 +1 x53 +1 x58 +1 x63 +1 x68 +1 x73 +1 x78 +1 x83 +1 x88 +1 x93 +1 x98 +1 x103 +1 x108 +1 x113 +1 x118 +1 x123 >= 9;
-1 x33 -1 x38 -1 x43 -1 x48 -1 x53 -1 x58 -1 x63 -1 x68 -1 x73 -1 x78 -1 x83 -1 x88 -1 x93 -1 x98 -1 x103 -1 x108 -1 x113 -1 x118 -1 x123 >= -10;
+1 x34 +1 x39 +1 x44 +1 x49 +1 x54 +1 x59 +1 x64 +1 x69 +1 x74 +1 x79 +1 x84 +1 x89 +1 x94 +1 x99 +1 x104 +1 x109 +1 x114 +1 x119 +1 x124 >= 9;
-1 x34 -1 x39 -1 x44 -1 x49 -1 x54 -1 x59 -1 x64 -1 x69 -1 x74 -1 x79 -1 x84 -1 x89 -1 x94 -1 x99 -1 x104 -1 x109 -1 x114 -1 x119 -1 x124 >= -10;
+1 x35 +1 x40 +1 x45 +1 x50 +1 x55 +1 x60 +1 x65 +1 x70 +1 x75 +1 x80 +1 x85 +1 x90 +1 x95 +1 x100 +1 x105 +1 x110 +1 x115 +1 x120 +1 x125 >= 9;
-1 x35 -1 x40 -1 x45 -1 x50 -1 x55 -1 x60 -1 x65 -1 x70 -1 x75 -1 x80 -1 x85 -1 x90 -1 x95 -1 x100 -1 x105 -1 x110 -1 x115 -1 x120 -1 x125 >= -10;
+1 x36 +1 x41 +1 x46 +1 x51 +1 x56 +1 x61 +1 x66 +1 x71 +1 x76 +1 x81 +1 x86 +1 x91 +1 x96 +1 x101 +1 x106 +1 x111 +1 x116 +1 x121 +1 x126 >= 9;
-1 x36 -1 x41 -1 x46 -1 x51 -1 x56 -1 x61 -1 x66 -1 x71 -1 x76 -1 x81 -1 x86 -1 x91 -1 x96 -1 x101 -1 x106 -1 x111 -1 x116 -1 x121 -1 x126 >= -10;
+1 x37 +1 x42 +1 x47 +1 x52 +1 x57 +1 x62 +1 x67 +1 x72 +1 x77 +1 x82 +1 x87 +1 x92 +1 x97 +1 x102 +1 x107 +1 x112 +1 x117 +1 x122 +1 x127 >= 9;
-1 x37 -1 x42 -1 x47 -1 x52 -1 x57 -1 x62 -1 x67 -1 x72 -1 x77 -1 x82 -1 x87 -1 x92 -1 x97 -1 x102 -1 x107 -1 x112 -1 x117 -1 x122 -1 x127 >= -10;
+1 x38 +1 x43 +1 x48 +1 x53 +1 x58 +1 x63 +1 x68 +1 x73 +1 x78 +1 x83 +1 x88 +1 x93 +1 x98 +1 x103 +1 x108 +1 x113 +1 x118 +1 x123 +1 x128 >= 9;
-1 x38 -1 x43 -1 x48 -1 x53 -1 x58 -1 x63 -1 x68 -1 x73 -1 x78 -1 x83 -1 x88 -1 x93 -1 x98 -1 x103 -1 x108 -1 x113 -1 x118 -1 x123 -1 x128 >= -10;
+1 x39 +1 x44 +1 x49 +1 x54 +1 x59 +1 x64 +1 x69 +1 x74 +1 x79 +1 x84 +1 x89 +1 x94 +1 x99 +1 x104 +1 x109 +1 x114 +1 x119 +1 x124 +1 x129 >= 9;
-1 x39 -1 x44 -1 x49 -1 x54 -1 x59 -1 x64 -1 x69 -1 x74 -1 x79 -1 x84 -1 x89 -1 x94 -1 x99 -1 x104 -1 x109 -1 x114 -1 x119 -1 x124 -1 x129 >= -10;
+1 x40 +1 x45 +1 x50 +1 x55 +1 x60 +1 x65 +1 x70 +1 x75 +1 x80 +1 x85 +1 x90 +1 x95 +1 x100 +1 x105 +1 x110 +1 x115 +1 x120 +1 x125 +1 x130 >= 9;
-1 x40 -1 x45 -1 x50 -1 x55 -1 x60 -1 x65 -1 x70 -1 x75 -1 x80 -1 x85 -1 x90 -1 x95 -1 x100 -1 x105 -1 x110 -1 x115 -1 x120 -1 x125 -1 x130 >= -10;
+1 x41 +1 x46 +1 x51 +1 x56 +1 x61 +1 x66 +1 x71 +1 x76 +1 x81 +1 x86 +1 x91 +1 x96 +1 x101 +1 x106 +1 x111 +1 x116 +1 x121 +1 x126 +1 x131 >= 9;
-1 x41 -1 x46 -1 x51 -1 x56 -1 x61 -1 x66 -1 x71 -1 x76 -1 x81 -1 x86 -1 x91 -1 x96 -1 x101 -1 x106 -1 x111 -1 x116 -1 x121 -1 x126 -1 x131 >= -10;
+1 x42 +1 x47 +1 x52 +1 x57 +1 x62 +1 x67 +1 x72 +1 x77 +1 x82 +1 x87 +1 x92 +1 x97 +1 x102 +1 x107 +1 x112 +1 x117 +1 x122 +1 x127 +1 x132 >= 9;
-1 x42 -1 x47 -1 x52 -1 x57 -1 x62 -1 x67 -1 x72 -1 x77 -1 x82 -1 x87 -1 x92 -1 x97 -1 x102 -1 x107 -1 x112 -1 x117 -1 x122 -1 x127 -1 x132 >= -10;
+1 x43 +1 x48 +1 x53 +1 x58 +1 x63 +1 x68 +1 x73 +1 x78 +1 x83 +1 x88 +1 x93 +1 x98 +1 x103 +1 x108 +1 x113 +1 x118 +1 x123 +1 x128 +1 x133 >= 9;
-1 x43 -1 x48 -1 x53 -1 x58 -1 x63 -1 x68 -1 x73 -1 x78 -1 x83 -1 x88 -1 x93 -1 x98 -1 x103 -1 x108 -1 x113 -1 x118 -1 x123 -1 x128 -1 x133 >= -10;
+1 x44 +1 x49 +1 x54 +1 x59 +1 x64 +1 x69 +1 x74 +1 x79 +1 x84 +1 x89 +1 x94 +1 x99 +1 x104 +1 x109 +1 x114 +1 x119 +1 x124 +1 x129 +1 x134 >= 9;
-1 x44 -1 x49 -1 x54 -1 x59 -1 x64 -1 x69 -1 x74 -1 x79 -1 x84 -1 x89 -1 x94 -1 x99 -1 x104 -1 x109 -1 x114 -1 x119 -1 x124 -1 x129 -1 x134 >= -10;
+1 x45 +1 x50 +1 x55 +1 x60 +1 x65 +1 x70 +1 x75 +1 x80 +1 x85 +1 x90 +1 x95 +1 x100 +1 x105 +1 x110 +1 x115 +1 x120 +1 x125 +1 x130 +1 x135 >= 9;
-1 x45 -1 x50 -1 x55 -1 x60 -1 x65 -1 x70 -1 x75 -1 x80 -1 x85 -1 x90 -1 x95 -1 x100 -1 x105 -1 x110 -1 x115 -1 x120 -1 x125 -1 x130 -1 x135 >= -10;
+1 x46 +1 x51 +1 x56 +1 x61 +1 x66 +1 x71 +1 x76 +1 x81 +1 x86 +1 x91 +1 x96 +1 x101 +1 x106 +1 x111 +1 x116 +1 x121 +1 x126 +1 x131 +1 x136 >= 9;
-1 x46 -1 x51 -1 x56 -1 x61 -1 x66 -1 x71 -1 x76 -1 x81 -1 x86 -1 x91 -1 x96 -1 x101 -1 x106 -1 x111 -1 x116 -1 x121 -1 x126 -1 x131 -1 x136 >= -10;
+1 x47 +1 x52 +1 x57 +1 x62 +1 x67 +1 x72 +1 x77 +1 x82 +1 x87 +1 x92 +1 x97 +1 x102 +1 x107 +1 x112 +1 x117 +1 x122 +1 x127 +1 x132 +1 x137 >= 9;
-1 x47 -1 x52 -1 x57 -1 x62 -1 x67 -1 x72 -1 x77 -1 x82 -1 x87 -1 x92 -1 x97 -1 x102 -1 x107 -1 x112 -1 x117 -1 x122 -1 x127 -1 x132 -1 x137 >= -10;
+1 x48 +1 x53 +1 x58 +1 x63 +1 x68 +1 x73 +1 x78 +1 x83 +1 x88 +1 x93 +1 x98 +1 x103 +1 x108 +1 x113 +1 x118 +1 x123 +1 x128 +1 x133 +1 x138 >= 9;
-1 x48 -1 x53 -1 x58 -1 x63 -1 x68 -1 x73 -1 x78 -1 x83 -1 x88 -1 x93 -1 x98 -1 x103 -1 x108 -1 x113 -1 x118 -1 x123 -1 x128 -1 x133 -1 x138 >= -10;
+1 x49 +1 x54 +1 x59 +1 x64 +1 x69 +1 x74 +1 x79 +1 x84 +1 x89 +1 x94 +1 x99 +1 x104 +1 x109 +1 x114 +1 x119 +1 x124 +1 x129 +1 x134 +1 x139 >= 9;
-1 x49 -1 x54 -1 x59 -1 x64 -1 x69 -1 x74 -1 x79 -1 x84 -1 x89 -1 x94 -1 x99 -1 x104 -1 x109 -1 x114 -1 x119 -1 x124 -1 x129 -1 x134 -1 x139 >= -10;
+1 x50 +1 x55 +1 x60 +1 x65 +1 x70 +1 x75 +1 x80 +1 x85 +1 x90 +1 x95 +1 x100 +1 x105 +1 x110 +1 x115 +1 x120 +1 x125 +1 x130 +1 x135 +1 x140 >= 9;
-1 x50 -1 x55 -1 x60 -1 x65 -1 x70 -1 x75 -1 x80 -1 x85 -1 x90 -1 x95 -1 x100 -1 x105 -1 x110 -1 x115 -1 x120 -1 x125 -1 x130 -1 x135 -1 x140 >= -10;
+1 x51 +1 x56 +1 x61 +1 x66 +1 x71 +1 x76 +1 x81 +1 x86 +1 x91 +1 x96 +1 x101 +1 x106 +1 x111 +1 x116 +1 x121 +1 x126 +1 x131 +1 x136 +1 x141 >= 9;
-1 x51 -1 x56 -1 x61 -1 x66 -1 x71 -1 x76 -1 x81 -1 x86 -1 x91 -1 x96 -1 x101 -1 x106 -1 x111 -1 x116 -1 x121 -1 x126 -1 x131 -1 x136 -1 x141 >= -10;
+1 x52 +1 x57 +1 x62 +1 x67 +1 x72 +1 x77 +1 x82 +1 x87 +1 x92 +1 x97 +1 x102 +1 x107 +1 x112 +1 x117 +1 x122 +1 x127 +1 x132 +1 x137 +1 x142 >= 9;
-1 x52 -1 x57 -1 x62 -1 x67 -1 x72 -1 x77 -1 x82 -1 x87 -1 x92 -1 x97 -1 x102 -1 x107 -1 x112 -1 x117 -1 x122 -1 x127 -1 x132 -1 x137 -1 x142 >= -10;
+1 x53 +1 x58 +1 x63 +1 x68 +1 x73 +1 x78 +1 x83 +1 x88 +1 x93 +1 x98 +1 x103 +1 x108 +1 x113 +1 x118 +1 x123 +1 x128 +1 x133 +1 x138 +1 x143 >= 9;
-1 x53 -1 x58 -1 x63 -1 x68 -1 x73 -1 x78 -1 x83 -1 x88 -1 x93 -1 x98 -1 x103 -1 x108 -1 x113 -1 x118 -1 x123 -1 x128 -1 x133 -1 x138 -1 x143 >= -10;
+1 x54 +1 x59 +1 x64 +1 x69 +1 x74 +1 x79 +1 x84 +1 x89 +1 x94 +1 x99 +1 x104 +1 x109 +1 x114 +1 x119 +1 x124 +1 x129 +1 x134 +1 x139 +1 x144 >= 9;
-1 x54 -1 x59 -1 x64 -1 x69 -1 x74 -1 x79 -1 x84 -1 x89 -1 x94 -1 x99 -1 x104 -1 x109 -1 x114 -1 x119 -1 x124 -1 x129 -1 x134 -1 x139 -1 x144 >= -10;
+1 x55 +1 x60 +1 x65 +1 x70 +1 x75 +1 x80 +1 x85 +1 x90 +1 x95 +1 x100 +1 x105 +1 x110 +1 x115 +1 x120 +1 x125 +1 x130 +1 x135 +1 x140 +1 x145 >= 9;
-1 x55 -1 x60 -1 x65 -1 x70 -1 x75 -1 x80 -1 x85 -1 x90 -1 x95 -1 x100 -1 x105 -1 x110 -1 x115 -1 x120 -1 x125 -1 x130 -1 x135 -1 x140 -1 x145 >= -10;
+1 x56 +1 x61 +1 x66 +1 x71 +1 x76 +1 x81 +1 x86 +1 x91 +1 x96 +1 x101 +1 x106 +1 x111 +1 x116 +1 x121 +1 x126 +1 x131 +1 x136 +1 x141 +1 x146 >= 9;
-1 x56 -1 x61 -1 x66 -1 x71 -1 x76 -1 x81 -1 x86 -1 x91 -1 x96 -1 x101 -1 x106 -1 x111 -1 x116 -1 x121 -1 x126 -1 x131 -1 x136 -1 x141 -1 x146 >= -10;
+1 x57 +1 x62 +1 x67 +1 x72 +1 x77 +1 x82 +1 x87 +1 x92 +1 x97 +1 x102 +1 x107 +1 x112 +1 x117 +1 x122 +1 x127 +1 x132 +1 x137 +1 x142 +1 x147 >= 9;
-1 x57 -1 x62 -1 x67 -1 x72 -1 x77 -1 x82 -1 x87 -1 x92 -1 x97 -1 x102 -1 x107 -1 x112 -1 x117 -1 x122 -1 x127 -1 x132 -1 x137 -1 x142 -1 x147 >= -10;
+1 x58 +1 x63 +1 x68 +1 x73 +1 x78 +1 x83 +1 x88 +1 x93 +1 x98 +1 x103 +1 x108 +1 x113 +1 x118 +1 x123 +1 x128 +1 x133 +1 x138 +1 x143 +1 x148 >= 9;
-1 x58 -1 x63 -1 x68 -1 x73 -1 x78 -1 x83 -1 x88 -1 x93 -1 x98 -1 x103 -1 x108 -1 x113 -1 x118 -1 x123 -1 x128 -1 x133 -1 x138 -1 x143 -1 x148 >= -10;
+1 x59 +1 x64 +1 x69 +1 x74 +1 x79 +1 x84 +1 x89 +1 x94 +1 x99 +1 x104 +1 x109 +1 x114 +1 x119 +1 x124 +1 x129 +1 x134 +1 x139 +1 x144 +1 x149 >= 9;
-1 x59 -1 x64 -1 x69 -1 x74 -1 x79 -1 x84 -1 x89 -1 x94 -1 x99 -1 x104 -1 x109 -1 x114 -1 x119 -1 x124 -1 x129 -1 x134 -1 x139 -1 x144 -1 x149 >= -10;
+1 x60 +1 x65 +1 x70 +1 x75 +1 x80 +1 x85 +1 x90 +1 x95 +1 x100 +1 x105 +1 x110 +1 x115 +1 x120 +1 x125 +1 x130 +1 x135 +1 x140 +1 x145 +1 x150 >= 9;
-1 x60 -1 x65 -1 x70 -1 x75 -1 x80 -1 x85 -1 x90 -1 x95 -1 x100 -1 x105 -1 x110 -1 x115 -1 x120 -1 x125 -1 x130 -1 x135 -1 x140 -1 x145 -1 x150 >= -10;
+1 x61 +1 x66 +1 x71 +1 x76 +1 x81 +1 x86 +1 x91 +1 x96 +1 x101 +1 x106 +1 x111 +1 x116 +1 x121 +1 x126 +1 x131 +1 x136 +1 x141 +1 x146 +1 x151 >= 9;
-1 x61 -1 x66 -1 x71 -1 x76 -1 x81 -1 x86 -1 x91 -1 x96 -1 x101 -1 x106 -1 x111 -1 x116 -1 x121 -1 x126 -1 x131 -1 x136 -1 x141 -1 x146 -1 x151 >= -10;
+1 x62 +1 x67 +1 x72 +1 x77 +1 x82 +1 x87 +1 x92 +1 x97 +1 x102 +1 x107 +1 x112 +1 x117 +1 x122 +1 x127 +1 x132 +1 x137 +1 x142 +1 x147 +1 x152 >= 9;
-1 x62 -1 x67 -1 x72 -1 x77 -1 x82 -1 x87 -1 x92 -1 x97 -1 x102 -1 x107 -1 x112 -1 x117 -1 x122 -1 x127 -1 x132 -1 x137 -1 x142 -1 x147 -1 x152 >= -10;
+1 x63 +1 x68 +1 x73 +1 x78 +1 x83 +1 x88 +1 x93 +1 x98 +1 x103 +1 x108 +1 x113 +1 x118 +1 x123 +1 x128 +1 x133 +1 x138 +1 x143 +1 x148 +1 x153 >= 9;
-1 x63 -1 x68 -1 x73 -1 x78 -1 x83 -1 x88 -1 x93 -1 x98 -1 x103 -1 x108 -1 x113 -1 x118 -1 x123 -1 x128 -1 x133 -1 x138 -1 x143 -1 x148 -1 x153 >= -10;
+1 x64 +1 x69 +1 x74 +1 x79 +1 x84 +1 x89 +1 x94 +1 x99 +1 x104 +1 x109 +1 x114 +1 x119 +1 x124 +1 x129 +1 x134 +1 x139 +1 x144 +1 x149 +1 x154 >= 9;
-1 x64 -1 x69 -1 x74 -1 x79 -1 x84 -1 x89 -1 x94 -1 x99 -1 x104 -1 x109 -1 x114 -1 x119 -1 x124 -1 x129 -1 x134 -1 x139 -1 x144 -1 x149 -1 x154 >= -10;
+1 x65 +1 x70 +1 x75 +1 x80 +1 x85 +1 x90 +1 x95 +1 x100 +1 x105 +1 x110 +1 x115 +1 x120 +1 x125 +1 x130 +1 x135 +1 x140 +1 x145 +1 x150 +1 x155 >= 9;
-1 x65 -1 x70 -1 x75 -1 x80 -1 x85 -1 x90 -1 x95 -1 x100 -1 x105 -1 x110 -1 x115 -1 x120 -1 x125 -1 x130 -1 x135 -1 x140 -1 x145 -1 x150 -1 x155 >= -10;
+1 x66 +1 x71 +1 x76 +1 x81 +1 x86 +1 x91 +1 x96 +1 x101 +1 x106 +1 x111 +1 x116 +1 x121 +1 x126 +1 x131 +1 x136 +1 x141 +1 x146 +1 x151 +1 x156 >= 9;
-1 x66 -1 x71 -1 x76 -1 x81 -1 x86 -1 x91 -1 x96 -1 x101 -1 x106 -1 x111 -1 x116 -1 x121 -1 x126 -1 x131 -1 x136 -1 x141 -1 x146 -1 x151 -1 x156 >= -10;
+1 x67 +1 x72 +1 x77 +1 x82 +1 x87 +1 x92 +1 x97 +1 x102 +1 x107 +1 x112 +1 x117 +1 x122 +1 x127 +1 x132 +1 x137 +1 x142 +1 x147 +1 x152 +1 x157 >= 9;
-1 x67 -1 x72 -1 x77 -1 x82 -1 x87 -1 x92 -1 x97 -1 x102 -1 x107 -1 x112 -1 x117 -1 x122 -1 x127 -1 x132 -1 x137 -1 x142 -1 x147 -1 x152 -1 x157 >= -10;
+1 x68 +1 x73 +1 x78 +1 x83 +1 x88 +1 x93 +1 x98 +1 x103 +1 x108 +1 x113 +1 x118 +1 x123 +1 x128 +1 x133 +1 x138 +1 x143 +1 x148 +1 x153 +1 x158 >= 9;
-1 x68 -1 x73 -1 x78 -1 x83 -1 x88 -1 x93 -1 x98 -1 x103 -1 x108 -1 x113 -1 x118 -1 x123 -1 x128 -1 x133 -1 x138 -1 x143 -1 x148 -1 x153 -1 x158 >= -10;
+1 x69 +1 x74 +1 x79 +1 x84 +1 x89 +1 x94 +1 x99 +1 x104 +1 x109 +1 x114 +1 x119 +1 x124 +1 x129 +1 x134 +1 x139 +1 x144 +1 x149 +1 x154 +1 x159 >= 9;
-1 x69 -1 x74 -1 x79 -1 x84 -1 x89 -1 x94 -1 x99 -1 x104 -1 x109 -1 x114 -1 x119 -1 x124 -1 x129 -1 x134 -1 x139 -1 x144 -1 x149 -1 x154 -1 x159 >= -10;
+1 x70 +1 x75 +1 x80 +1 x85 +1 x90 +1 x95 +1 x100 +1 x105 +1 x110 +1 x115 +1 x120 +1 x125 +1 x130 +1 x135 +1 x140 +1 x145 +1 x150 +1 x155 +1 x160 >= 9;
-1 x70 -1 x75 -1 x80 -1 x85 -1 x90 -1 x95 -1 x100 -1 x105 -1 x110 -1 x115 -1 x120 -1 x125 -1 x130 -1 x135 -1 x140 -1 x145 -1 x150 -1 x155 -1 x160 >= -10;
+1 x71 +1 x76 +1 x81 +1 x86 +1 x91 +1 x96 +1 x101 +1 x106 +1 x111 +1 x116 +1 x121 +1 x126 +1 x131 +1 x136 +1 x141 +1 x146 +1 x151 +1 x156 +1 x161 >= 9;
-1 x71 -1 x76 -1 x81 -1 x86 -1 x91 -1 x96 -1 x101 -1 x106 -1 x111 -1 x116 -1 x121 -1 x126 -1 x131 -1 x136 -1 x141 -1 x146 -1 x151 -1 x156 -1 x161 >= -10;
+1 x72 +1 x77 +1 x82 +1 x87 +1 x92 +1 x97 +1 x102 +1 x107 +1 x112 +1 x117 +1 x122 +1 x127 +1 x132 +1 x137 +1 x142 +1 x147 +1 x152 +1 x157 +1 x162 >= 9;
-1 x72 -1 x77 -1 x82 -1 x87 -1 x92 -1 x97 -1 x102 -1 x107 -1 x112 -1 x117 -1 x122 -1 x127 -1 x132 -1 x137 -1 x142 -1 x147 -1 x152 -1 x157 -1 x162 >= -10;
+1 x73 +1 x78 +1 x83 +1 x88 +1 x93 +1 x98 +1 x103 +1 x108 +1 x113 +1 x118 +1 x123 +1 x128 +1 x133 +1 x138 +1 x143 +1 x148 +1 x153 +1 x158 +1 x163 >= 9;
-1 x73 -1 x78 -1 x83 -1 x88 -1 x93 -1 x98 -1 x103 -1 x108 -1 x113 -1 x118 -1 x123 -1 x128 -1 x133 -1 x138 -1 x143 -1 x148 -1 x153 -1 x158 -1 x163 >= -10;
+1 x74 +1 x79 +1 x84 +1 x89 +1 x94 +1 x99 +1 x104 +1 x109 +1 x114 +1 x119 +1 x124 +1 x129 +1 x134 +1 x139 +1 x144 +1 x149 +1 x154 +1 x159 +1 x164 >= 9;
-1 x74 -1 x79 -1 x84 -1 x89 -1 x94 -1 x99 -1 x104 -1 x109 -1 x114 -1 x119 -1 x124 -1 x129 -1 x134 -1 x139 -1 x144 -1 x149 -1 x154 -1 x159 -1 x164 >= -10;
+1 x75 +1 x80 +1 x85 +1 x90 +1 x95 +1 x100 +1 x105 +1 x110 +1 x115 +1 x120 +1 x125 +1 x130 +1 x135 +1 x140 +1 x145 +1 x150 +1 x155 +1 x160 +1 x165 >= 9;
-1 x75 -1 x80 -1 x85 -1 x90 -1 x95 -1 x100 -1 x105 -1 x110 -1 x115 -1 x120 -1 x125 -1 x130 -1 x135 -1 x140 -1 x145 -1 x150 -1 x155 -1 x160 -1 x165 >= -10;
+1 x76 +1 x81 +1 x86 +1 x91 +1 x96 +1 x101 +1 x106 +1 x111 +1 x116 +1 x121 +1 x126 +1 x131 +1 x136 +1 x141 +1 x146 +1 x151 +1 x156 +1 x161 +1 x166 >= 9;
-1 x76 -1 x81 -1 x86 -1 x91 -1 x96 -1 x101 -1 x106 -1 x111 -1 x116 -1 x121 -1 x126 -1 x131 -1 x136 -1 x141 -1 x146 -1 x151 -1 x156 -1 x161 -1 x166 >= -10;
+1 x77 +1 x82 +1 x87 +1 x92 +1 x97 +1 x102 +1 x107 +1 x112 +1 x117 +1 x122 +1 x127 +1 x132 +1 x137 +1 x142 +1 x147 +1 x152 +1 x157 +1 x162 +1 x167 >= 9;
-1 x77 -1 x82 -1 x87 -1 x92 -1 x97 -1 x102 -1 x107 -1 x112 -1 x117 -1 x122 -1 x127 -1 x132 -1 x137 -1 x142 -1 x147 -1 x152 -1 x157 -1 x162 -1 x167 >= -10;
+1 x78 +1 x83 +1 x88 +1 x93 +1 x98 +1 x103 +1 x108 +1 x113 +1 x118 +1 x123 +1 x128 +1 x133 +1 x138 +1 x143 +1 x148 +1 x153 +1 x158 +1 x163 +1 x168 >= 9;
-1 x78 -1 x83 -1 x88 -1 x93 -1 x98 -1 x103 -1 x108 -1 x113 -1 x118 -1 x123 -1 x128 -1 x133 -1 x138 -1 x143 -1 x148 -1 x153 -1 x158 -1 x163 -1 x168 >= -10;
+1 x79 +1 x84 +1 x89 +1 x94 +1 x99 +1 x104 +1 x109 +1 x114 +1 x119 +1 x124 +1 x129 +1 x134 +1 x139 +1 x144 +1 x149 +1 x154 +1 x159 +1 x164 +1 x169 >= 9;
-1 x79 -1 x84 -1 x89 -1 x94 -1 x99 -1 x104 -1 x109 -1 x114 -1 x119 -1 x124 -1 x129 -1 x134 -1 x139 -1 x144 -1 x149 -1 x154 -1 x159 -1 x164 -1 x169 >= -10;
+1 x80 +1 x85 +1 x90 +1 x95 +1 x100 +1 x105 +1 x110 +1 x115 +1 x120 +1 x125 +1 x130 +1 x135 +1 x140 +1 x145 +1 x150 +1 x155 +1 x160 +1 x165 +1 x170 >= 9;
-1 x80 -1 x85 -1 x90 -1 x95 -1 x100 -1 x105 -1 x110 -1 x115 -1 x120 -1 x125 -1 x130 -1 x135 -1 x140 -1 x145 -1 x150 -1 x155 -1 x160 -1 x165 -1 x170 >= -10;
+1 x81 +1 x86 +1 x91 +1 x96 +1 x101 +1 x106 +1 x111 +1 x116 +1 x121 +1 x126 +1 x131 +1 x136 +1 x141 +1 x146 +1 x151 +1 x156 +1 x161 +1 x166 +1 x171 >= 9;
-1 x81 -1 x86 -1 x91 -1 x96 -1 x101 -1 x106 -1 x111 -1 x116 -1 x121 -1 x126 -1 x131 -1 x136 -1 x141 -1 x146 -1 x151 -1 x156 -1 x161 -1 x166 -1 x171 >= -10;
+1 x82 +1 x87 +1 x92 +1 x97 +1 x102 +1 x107 +1 x112 +1 x117 +1 x122 +1 x127 +1 x132 +1 x137 +1 x142 +1 x147 +1 x152 +1 x157 +1 x162 +1 x167 +1 x172 >= 9;
-1 x82 -1 x87 -1 x92 -1 x97 -1 x102 -1 x107 -1 x112 -1 x117 -1 x122 -1 x127 -1 x132 -1 x137 -1 x142 -1 x147 -1 x152 -1 x157 -1 x162 -1 x167 -1 x172 >= -10;
+1 x83 +1 x88 +1 x93 +1 x98 +1 x103 +1 x108 +1 x113 +1 x118 +1 x123 +1 x128 +1 x133 +1 x138 +1 x143 +1 x148 +1 x153 +1 x158 +1 x163 +1 x168 +1 x173 >= 9;
-1 x83 -1 x88 -1 x93 -1 x98 -1 x103 -1 x108 -1 x113 -1 x118 -1 x123 -1 x128 -1 x133 -1 x138 -1 x143 -1 x148 -1 x153 -1 x158 -1 x163 -1 x168 -1 x173 >= -10;
+1 x84 +1 x89 +1 x94 +1 x99 +1 x104 +1 x109 +1 x114 +1 x119 +1 x124 +1 x129 +1 x134 +1 x139 +1 x144 +1 x149 +1 x154 +1 x159 +1 x164 +1 x169 +1 x174 >= 9;
-1 x84 -1 x89 -1 x94 -1 x99 -1 x104 -1 x109 -1 x114 -1 x119 -1 x124 -1 x129 -1 x134 -1 x139 -1 x144 -1 x149 -1 x154 -1 x159 -1 x164 -1 x169 -1 x174 >= -10;
+1 x85 +1 x90 +1 x95 +1 x100 +1 x105 +1 x110 +1 x115 +1 x120 +1 x125 +1 x130 +1 x135 +1 x140 +1 x145 +1 x150 +1 x155 +1 x160 +1 x165 +1 x170 +1 x175 >= 9;
-1 x85 -1 x90 -1 x95 -1 x100 -1 x105 -1 x110 -1 x115 -1 x120 -1 x125 -1 x130 -1 x135 -1 x140 -1 x145 -1 x150 -1 x155 -1 x160 -1 x165 -1 x170 -1 x175 >= -10;
+1 x86 +1 x91 +1 x96 +1 x101 +1 x106 +1 x111 +1 x116 +1 x121 +1 x126 +1 x131 +1 x136 +1 x141 +1 x146 +1 x151 +1 x156 +1 x161 +1 x166 +1 x171 +1 x176 >= 9;
-1 x86 -1 x91 -1 x96 -1 x101 -1 x106 -1 x111 -1 x116 -1 x121 -1 x126 -1 x131 -1 x136 -1 x141 -1 x146 -1 x151 -1 x156 -1 x161 -1 x166 -1 x171 -1 x176 >= -10;
+1 x87 +1 x92 +1 x97 +1 x102 +1 x107 +1 x112 +1 x117 +1 x122 +1 x127 +1 x132 +1 x137 +1 x142 +1 x147 +1 x152 +1 x157 +1 x162 +1 x167 +1 x172 +1 x177 >= 9;
-1 x87 -1 x92 -1 x97 -1 x102 -1 x107 -1 x112 -1 x117 -1 x122 -1 x127 -1 x132 -1 x137 -1 x142 -1 x147 -1 x152 -1 x157 -1 x162 -1 x167 -1 x172 -1 x177 >= -10;
+1 x88 +1 x93 +1 x98 +1 x103 +1 x108 +1 x113 +1 x118 +1 x123 +1 x128 +1 x133 +1 x138 +1 x143 +1 x148 +1 x153 +1 x158 +1 x163 +1 x168 +1 x173 +1 x178 >= 9;
-1 x88 -1 x93 -1 x98 -1 x103 -1 x108 -1 x113 -1 x118 -1 x123 -1 x128 -1 x133 -1 x138 -1 x143 -1 x148 -1 x153 -1 x158 -1 x163 -1 x168 -1 x173 -1 x178 >= -10;
+1 x89 +1 x94 +1 x99 +1 x104 +1 x109 +1 x114 +1 x119 +1 x124 +1 x129 +1 x134 +1 x139 +1 x144 +1 x149 +1 x154 +1 x159 +1 x164 +1 x169 +1 x174 +1 x179 >= 9;
-1 x89 -1 x94 -1 x99 -1 x104 -1 x109 -1 x114 -1 x119 -1 x124 -1 x129 -1 x134 -1 x139 -1 x144 -1 x149 -1 x154 -1 x159 -1 x164 -1 x169 -1 x174 -1 x179 >= -10;
+1 x90 +1 x95 +1 x100 +1 x105 +1 x110 +1 x115 +1 x120 +1 x125 +1 x130 +1 x135 +1 x140 +1 x145 +1 x150 +1 x155 +1 x160 +1 x165 +1 x170 +1 x175 +1 x180 >= 9;
-1 x90 -1 x95 -1 x100 -1 x105 -1 x110 -1 x115 -1 x120 -1 x125 -1 x130 -1 x135 -1 x140 -1 x145 -1 x150 -1 x155 -1 x160 -1 x165 -1 x170 -1 x175 -1 x180 >= -10;
+1 x91 +1 x96 +1 x101 +1 x106 +1 x111 +1 x116 +1 x121 +1 x126 +1 x131 +1 x136 +1 x141 +1 x146 +1 x151 +1 x156 +1 x161 +1 x166 +1 x171 +1 x176 +1 x181 >= 9;
-1 x91 -1 x96 -1 x101 -1 x106 -1 x111 -1 x116 -1 x121 -1 x126 -1 x131 -1 x136 -1 x141 -1 x146 -1 x151 -1 x156 -1 x161 -1 x166 -1 x171 -1 x176 -1 x181 >= -10;
+1 x92 +1 x97 +1 x102 +1 x107 +1 x112 +1 x117 +1 x122 +1 x127 +1 x132 +1 x137 +1 x142 +1 x147 +1 x152 +1 x157 +1 x162 +1 x167 +1 x172 +1 x177 +1 x182 >= 9;
-1 x92 -1 x97 -1 x102 -1 x107 -1 x112 -1 x117 -1 x122 -1 x127 -1 x132 -1 x137 -1 x142 -1 x147 -1 x152 -1 x157 -1 x162 -1 x167 -1 x172 -1 x177 -1 x182 >= -10;
+1 x93 +1 x98 +1 x103 +1 x108 +1 x113 +1 x118 +1 x123 +1 x128 +1 x133 +1 x138 +1 x143 +1 x148 +1 x153 +1 x158 +1 x163 +1 x168 +1 x173 +1 x178 +1 x183 >= 9;
-1 x93 -1 x98 -1 x103 -1 x108 -1 x113 -1 x118 -1 x123 -1 x128 -1 x133 -1 x138 -1 x143 -1 x148 -1 x153 -1 x158 -1 x163 -1 x168 -1 x173 -1 x178 -1 x183 >= -10;
+1 x94 +1 x99 +1 x104 +1 x109 +1 x114 +1 x119 +1 x124 +1 x129 +1 x134 +1 x139 +1 x144 +1 x149 +1 x154 +1 x159 +1 x164 +1 x169 +1 x174 +1 x179 +1 x184 >= 9;
-1 x94 -1 x99 -1 x104 -1 x109 -1 x114 -1 x119 -1 x124 -1 x129 -1 x134 -1 x139 -1 x144 -1 x149 -1 x154 -1 x159 -1 x164 -1 x169 -1 x174 -1 x179 -1 x184 >= -10;
+1 x95 +1 x100 +1 x105 +1 x110 +1 x115 +1 x120 +1 x125 +1 x130 +1 x135 +1 x140 +1 x145 +1 x150 +1 x155 +1 x160 +1 x165 +1 x170 +1 x175 +1 x180 +1 x185 >= 9;
-1 x95 -1 x100 -1 x105 -1 x110 -1 x115 -1 x120 -1 x125 -1 x130 -1 x135 -1 x140 -1 x145 -1 x150 -1 x155 -1 x160 -1 x165 -1 x170 -1 x175 -1 x180 -1 x185 >= -10;
+1 x96 +1 x101 +1 x106 +1 x111 +1 x116 +1 x121 +1 x126 +1 x131 +1 x136 +1 x141 +1 x146 +1 x151 +1 x156 +1 x161 +1 x166 +1 x171 +1 x176 +1 x181 +1 x186 >= 9;
-1 x96 -1 x101 -1 x106 -1 x111 -1 x116 -1 x121 -1 x126 -1 x131 -1 x136 -1 x141 -1 x146 -1 x151 -1 x156 -1 x161 -1 x166 -1 x171 -1 x176 -1 x181 -1 x186 >= -10;
+1 x97 +1 x102 +1 x107 +1 x112 +1 x117 +1 x122 +1 x127 +1 x132 +1 x137 +1 x142 +1 x147 +1 x152 +1 x157 +1 x162 +1 x167 +1 x172 +1 x177 +1 x182 +1 x187 >= 9;
-1 x97 -1 x102 -1 x107 -1 x112 -1 x117 -1 x122 -1 x127 -1 x132 -1 x137 -1 x142 -1 x147 -1 x152 -1 x157 -1 x162 -1 x167 -1 x172 -1 x177 -1 x182 -1 x187 >= -10;
+1 x98 +1 x103 +1 x108 +1 x113 +1 x118 +1 x123 +1 x128 +1 x133 +1 x138 +1 x143 +1 x148 +1 x153 +1 x158 +1 x163 +1 x168 +1 x173 +1 x178 +1 x183 +1 x188 >= 9;
-1 x98 -1 x103 -1 x108 -1 x113 -1 x118 -1 x123 -1 x128 -1 x133 -1 x138 -1 x143 -1 x148 -1 x153 -1 x158 -1 x163 -1 x168 -1 x173 -1 x178 -1 x183 -1 x188 >= -10;
+1 x99 +1 x104 +1 x109 +1 x114 +1 x119 +1 x124 +1 x129 +1 x134 +1 x139 +1 x144 +1 x149 +1 x154 +1 x159 +1 x164 +1 x169 +1 x174 +1 x179 +1 x184 +1 x189 >= 9;
-1 x99 -1 x104 -1 x109 -1 x114 -1 x119 -1 x124 -1 x129 -1 x134 -1 x139 -1 x144 -1 x149 -1 x154 -1 x159 -1 x164 -1 x169 -1 x174 -1 x179 -1 x184 -1 x189 >= -10;
+1 x100 +1 x105 +1 x110 +1 x115 +1 x120 +1 x125 +1 x130 +1 x135 +1 x140 +1 x145 +1 x150 +1 x155 +1 x160 +1 x165 +1 x170 +1 x175 +1 x180 +1 x185 +1 x190 >= 9;
-1 x100 -1 x105 -1 x110 -1 x115 -1 x120 -1 x125 -1 x130 -1 x135 -1 x140 -1 x145 -1 x150 -1 x155 -1 x160 -1 x165 -1 x170 -1 x175 -1 x180 -1 x185 -1 x190 >= -10;
+1 x101 +1 x106 +1 x111 +1 x116 +1 x121 +1 x126 +1 x131 +1 x136 +1 x141 +1 x146 +1 x151 +1 x156 +1 x161 +1 x166 +1 x171 +1 x176 +1 x181 +1 x186 +1 x191 >= 9;
-1 x101 -1 x106 -1 x111 -1 x116 -1 x121 -1 x126 -1 x131 -1 x136 -1 x141 -1 x146 -1 x151 -1 x156 -1 x161 -1 x166 -1 x171 -1 x176 -1 x181 -1 x186 -1 x191 >= -10;
+1 x102 +1 x107 +1 x112 +1 x117 +1 x122 +1 x127 +1 x132 +1 x137 +1 x142 +1 x147 +1 x152 +1 x157 +1 x162 +1 x167 +1 x172 +1 x177 +1 x182 +1 x187 +1 x192 >= 9;
-1 x102 -1 x107 -1 x112 -1 x117 -1 x122 -1 x127 -1 x132 -1 x137 -1 x142 -1 x147 -1 x152 -1 x157 -1 x162 -1 x167 -1 x172 -1 x177 -1 x182 -1 x187 -1 x192 >= -10;
+1 x103 +1 x108 +1 x113 +1 x118 +1 x123 +1 x128 +1 x133 +1 x138 +1 x143 +1 x148 +1 x153 +1 x158 +1 x163 +1 x168 +1 x173 +1 x178 +1 x183 +1 x188 +1 x193 >= 9;
-1 x103 -1 x108 -1 x113 -1 x118 -1 x123 -1 x128 -1 x133 -1 x138 -1 x143 -1 x148 -1 x153 -1 x158 -1 x163 -1 x168 -1 x173 -1 x178 -1 x183 -1 x188 -1 x193 >= -10;
+1 x104 +1 x109 +1 x114 +1 x119 +1 x124 +1 x129 +1 x134 +1 x139 +1 x144 +1 x149 +1 x154 +1 x159 +1 x164 +1 x169 +1 x174 +1 x179 +1 x184 +1 x189 +1 x194 >= 9;
-1 x104 -1 x109 -1 x114 -1 x119 -1 x124 -1 x129 -1 x134 -1 x139 -1 x144 -1 x149 -1 x154 -1 x159 -1 x164 -1 x169 -1 x174 -1 x179 -1 x184 -1 x189 -1 x194 >= -10;
+1 x105 +1 x110 +1 x115 +1 x120 +1 x125 +1 x130 +1 x135 +1 x140 +1 x145 +1 x150 +1 x155 +1 x160 +1 x165 +1 x170 +1 x175 +1 x180 +1 x185 +1 x190 +1 x195 >= 9;
-1 x105 -1 x110 -1 x115 -1 x120 -1 x125 -1 x130 -1 x135 -1 x140 -1 x145 -1 x150 -1 x155 -1 x160 -1 x165 -1 x170 -1 x175 -1 x180 -1 x185 -1 x190 -1 x195 >= -10;
+1 x106 +1 x111 +1 x116 +1 x121 +1 x126 +1 x131 +1 x136 +1 x141 +1 x146 +1 x151 +1 x156 +1 x161 +1 x166 +1 x171 +1 x176 +1 x181 +1 x186 +1 x191 +1 x196 >= 9;
-1 x106 -1 x111 -1 x116 -1 x121 -1 x126 -1 x131 -1 x136 -1 x141 -1 x146 -1 x151 -1 x156 -1 x161 -1 x166 -1 x171 -1 x176 -1 x181 -1 x186 -1 x191 -1 x196 >= -10;
+1 x107 +1 x112 +1 x117 +1 x122 +1 x127 +1 x132 +1 x137 +1 x142 +1 x147 +1 x152 +1 x157 +1 x162 +1 x167 +1 x172 +1 x177 +1 x182 +1 x187 +1 x192 +1 x197 >= 9;
-1 x107 -1 x112 -1 x117 -1 x122 -1 x127 -1 x132 -1 x137 -1 x142 -1 x147 -1 x152 -1 x157 -1 x162 -1 x167 -1 x172 -1 x177 -1 x182 -1 x187 -1 x192 -1 x197 >= -10;
+1 x108 +1 x113 +1 x118 +1 x123 +1 x128 +1 x133 +1 x138 +1 x143 +1 x148 +1 x153 +1 x158 +1 x163 +1 x168 +1 x173 +1 x178 +1 x183 +1 x188 +1 x193 +1 x198 >= 9;
-1 x108 -1 x113 -1 x118 -1 x123 -1 x128 -1 x133 -1 x138 -1 x143 -1 x148 -1 x153 -1 x158 -1 x163 -1 x168 -1 x173 -1 x178 -1 x183 -1 x188 -1 x193 -1 x198 >= -10;
+1 x109 +1 x114 +1 x119 +1 x124 +1 x129 +1 x134 +1 x139 +1 x144 +1 x149 +1 x154 +1 x159 +1 x164 +1 x169 +1 x174 +1 x179 +1 x184 +1 x189 +1 x194 +1 x199 >= 9;
-1 x109 -1 x114 -1 x119 -1 x124 -1 x129 -1 x134 -1 x139 -1 x144 -1 x149 -1 x154 -1 x159 -1 x164 -1 x169 -1 x174 -1 x179 -1 x184 -1 x189 -1 x194 -1 x199 >= -10;
+1 x110 +1 x115 +1 x120 +1 x125 +1 x130 +1 x135 +1 x140 +1 x145 +1 x150 +1 x155 +1 x160 +1 x165 +1 x170 +1 x175 +1 x180 +1 x185 +1 x190 +1 x195 +1 x200 >= 9;
-1 x110 -1 x115 -1 x120 -1 x125 -1 x130 -1 x135 -1 x140 -1 x145 -1 x150 -1 x155 -1 x160 -1 x165 -1 x170 -1 x175 -1 x180 -1 x185 -1 x190 -1 x195 -1 x200 >= -10;
+1 x111 +1 x116 +1 x121 +1 x126 +1 x131 +1 x136 +1 x141 +1 x146 +1 x151 +1 x156 +1 x161 +1 x166 +1 x171 +1 x176 +1 x181 +1 x186 +1 x191 +1 x196 +1 x201 >= 9;
-1 x111 -1 x116 -1 x121 -1 x126 -1 x131 -1 x136 -1 x141 -1 x146 -1 x151 -1 x156 -1 x161 -1 x166 -1 x171 -1 x176 -1 x181 -1 x186 -1 x191 -1 x196 -1 x201 >= -10;
+1 x112 +1 x117 +1 x122 +1 x127 +1 x132 +1 x137 +1 x142 +1 x147 +1 x152 +1 x157 +1 x162 +1 x167 +1 x172 +1 x177 +1 x182 +1 x187 +1 x192 +1 x197 +1 x202 >= 9;
-1 x112 -1 x117 -1 x122 -1 x127 -1 x132 -1 x137 -1 x142 -1 x147 -1 x152 -1 x157 -1 x162 -1 x167 -1 x172 -1 x177 -1 x182 -1 x187 -1 x192 -1 x197 -1 x202 >= -10;
+1 x113 +1 x118 +1 x123 +1 x128 +1 x133 +1 x138 +1 x143 +1 x148 +1 x153 +1 x158 +1 x163 +1 x168 +1 x173 +1 x178 +1 x183 +1 x188 +1 x193 +1 x198 +1 x203 >= 9;
-1 x113 -1 x118 -1 x123 -1 x128 -1 x133 -1 x138 -1 x143 -1 x148 -1 x153 -1 x158 -1 x163 -1 x168 -1 x173 -1 x178 -1 x183 -1 x188 -1 x193 -1 x198 -1 x203 >= -10;
+1 x114 +1 x119 +1 x124 +1 x129 +1 x134 +1 x139 +1 x144 +1 x149 +1 x154 +1 x159 +1 x164 +1 x169 +1 x174 +1 x179 +1 x184 +1 x189 +1 x194 +1 x199 +1 x204 >= 9;
-1 x114 -1 x119 -1 x124 -1 x129 -1 x134 -1 x139 -1 x144 -1 x149 -1 x154 -1 x159 -1 x164 -1 x169 -1 x174 -1 x179 -1 x184 -1 x189 -1 x194 -1 x199 -1 x204 >= -10;
+1 x115 +1 x120 +1 x125 +1 x130 +1 x135 +1 x140 +1 x145 +1 x150 +1 x155 +1 x160 +1 x165 +1 x170 +1 x175 +1 x180 +1 x185 +1 x190 +1 x195 +1 x200 +1 x205 >= 9;
-1 x115 -1 x120 -1 x125 -1 x130 -1 x135 -1 x140 -1 x145 -1 x150 -1 x155 -1 x160 -1 x165 -1 x170 -1 x175 -1 x180 -1 x185 -1 x190 -1 x195 -1 x200 -1 x205 >= -10;
+1 x116 +1 x121 +1 x126 +1 x131 +1 x136 +1 x141 +1 x146 +1 x151 +1 x156 +1 x161 +1 x166 +1 x171 +1 x176 +1 x181 +1 x186 +1 x191 +1 x196 +1 x201 +1 x206 >= 9;
-1 x116 -1 x121 -1 x126 -1 x131 -1 x136 -1 x141 -1 x146 -1 x151 -1 x156 -1 x161 -1 x166 -1 x171 -1 x176 -1 x181 -1 x186 -1 x191 -1 x196 -1 x201 -1 x206 >= -10;
+1 x117 +1 x122 +1 x127 +1 x132 +1 x137 +1 x142 +1 x147 +1 x152 +1 x157 +1 x162 +1 x167 +1 x172 +1 x177 +1 x182 +1 x187 +1 x192 +1 x197 +1 x202 +1 x207 >= 9;
-1 x117 -1 x122 -1 x127 -1 x132 -1 x137 -1 x142 -1 x147 -1 x152 -1 x157 -1 x162 -1 x167 -1 x172 -1 x177 -1 x182 -1 x187 -1 x192 -1 x197 -1 x202 -1 x207 >= -10;
+1 x118 +1 x123 +1 x128 +1 x133 +1 x138 +1 x143 +1 x148 +1 x153 +1 x158 +1 x163 +1 x168 +1 x173 +1 x178 +1 x183 +1 x188 +1 x193 +1 x198 +1 x203 +1 x208 >= 9;
-1 x118 -1 x123 -1 x128 -1 x133 -1 x138 -1 x143 -1 x148 -1 x153 -1 x158 -1 x163 -1 x168 -1 x173 -1 x178 -1 x183 -1 x188 -1 x193 -1 x198 -1 x203 -1 x208 >= -10;
+1 x119 +1 x124 +1 x129 +1 x134 +1 x139 +1 x144 +1 x149 +1 x154 +1 x159 +1 x164 +1 x169 +1 x174 +1 x179 +1 x184 +1 x189 +1 x194 +1 x199 +1 x204 +1 x209 >= 9;
-1 x119 -1 x124 -1 x129 -1 x134 -1 x139 -1 x144 -1 x149 -1 x154 -1 x159 -1 x164 -1 x169 -1 x174 -1 x179 -1 x184 -1 x189 -1 x194 -1 x199 -1 x204 -1 x209 >= -10;
+1 x120 +1 x125 +1 x130 +1 x135 +1 x140 +1 x145 +1 x150 +1 x155 +1 x160 +1 x165 +1 x170 +1 x175 +1 x180 +1 x185 +1 x190 +1 x195 +1 x200 +1 x205 +1 x210 >= 9;
-1 x120 -1 x125 -1 x130 -1 x135 -1 x140 -1 x145 -1 x150 -1 x155 -1 x160 -1 x165 -1 x170 -1 x175 -1 x180 -1 x185 -1 x190 -1 x195 -1 x200 -1 x205 -1 x210 >= -10;
+1 x121 +1 x126 +1 x131 +1 x136 +1 x141 +1 x146 +1 x151 +1 x156 +1 x161 +1 x166 +1 x171 +1 x176 +1 x181 +1 x186 +1 x191 +1 x196 +1 x201 +1 x206 +1 x211 >= 9;
-1 x121 -1 x126 -1 x131 -1 x136 -1 x141 -1 x146 -1 x151 -1 x156 -1 x161 -1 x166 -1 x171 -1 x176 -1 x181 -1 x186 -1 x191 -1 x196 -1 x201 -1 x206 -1 x211 >= -10;
+1 x122 +1 x127 +1 x132 +1 x137 +1 x142 +1 x147 +1 x152 +1 x157 +1 x162 +1 x167 +1 x172 +1 x177 +1 x182 +1 x187 +1 x192 +1 x197 +1 x202 +1 x207 +1 x212 >= 9;
-1 x122 -1 x127 -1 x132 -1 x137 -1 x142 -1 x147 -1 x152 -1 x157 -1 x162 -1 x167 -1 x172 -1 x177 -1 x182 -1 x187 -1 x192 -1 x197 -1 x202 -1 x207 -1 x212 >= -10;
+1 x123 +1 x128 +1 x133 +1 x138 +1 x143 +1 x148 +1 x153 +1 x158 +1 x163 +1 x168 +1 x173 +1 x178 +1 x183 +1 x188 +1 x193 +1 x198 +1 x203 +1 x208 +1 x213 >= 9;
-1 x123 -1 x128 -1 x133 -1 x138 -1 x143 -1 x148 -1 x153 -1 x158 -1 x163 -1 x168 -1 x173 -1 x178 -1 x183 -1 x188 -1 x193 -1 x198 -1 x203 -1 x208 -1 x213 >= -10;
+1 x124 +1 x129 +1 x134 +1 x139 +1 x144 +1 x149 +1 x154 +1 x159 +1 x164 +1 x169 +1 x174 +1 x179 +1 x184 +1 x189 +1 x194 +1 x199 +1 x204 +1 x209 +1 x214 >= 9;
-1 x124 -1 x129 -1 x134 -1 x139 -1 x144 -1 x149 -1 x154 -1 x159 -1 x164 -1 x169 -1 x174 -1 x179 -1 x184 -1 x189 -1 x194 -1 x199 -1 x204 -1 x209 -1 x214 >= -10;
+1 x125 +1 x130 +1 x135 +1 x140 +1 x145 +1 x150 +1 x155 +1 x160 +1 x165 +1 x170 +1 x175 +1 x180 +1 x185 +1 x190 +1 x195 +1 x200 +1 x205 +1 x210 +1 x215 >= 9;
-1 x125 -1 x130 -1 x135 -1 x140 -1 x145 -1 x150 -1 x155 -1 x160 -1 x165 -1 x170 -1 x175 -1 x180 -1 x185 -1 x190 -1 x195 -1 x200 -1 x205 -1 x210 -1 x215 >= -10;
+1 x126 +1 x131 +1 x136 +1 x141 +1 x146 +1 x151 +1 x156 +1 x161 +1 x166 +1 x171 +1 x176 +1 x181 +1 x186 +1 x191 +1 x196 +1 x201 +1 x206 +1 x211 +1 x216 >= 9;
-1 x126 -1 x131 -1 x136 -1 x141 -1 x146 -1 x151 -1 x156 -1 x161 -1 x166 -1 x171 -1 x176 -1 x181 -1 x186 -1 x191 -1 x196 -1 x201 -1 x206 -1 x211 -1 x216 >= -10;
+1 x127 +1 x132 +1 x137 +1 x142 +1 x147 +1 x152 +1 x157 +1 x162 +1 x167 +1 x172 +1 x177 +1 x182 +1 x187 +1 x192 +1 x197 +1 x202 +1 x207 +1 x212 +1 x217 >= 9;
-1 x127 -1 x132 -1 x137 -1 x142 -1 x147 -1 x152 -1 x157 -1 x162 -1 x167 -1 x172 -1 x177 -1 x182 -1 x187 -1 x192 -1 x197 -1 x202 -1 x207 -1 x212 -1 x217 >= -10;
+1 x128 +1 x133 +1 x138 +1 x143 +1 x148 +1 x153 +1 x158 +1 x163 +1 x168 +1 x173 +1 x178 +1 x183 +1 x188 +1 x193 +1 x198 +1 x203 +1 x208 +1 x213 +1 x218 >= 9;
-1 x128 -1 x133 -1 x138 -1 x143 -1 x148 -1 x153 -1 x158 -1 x163 -1 x168 -1 x173 -1 x178 -1 x183 -1 x188 -1 x193 -1 x198 -1 x203 -1 x208 -1 x213 -1 x218 >= -10;
+1 x129 +1 x134 +1 x139 +1 x144 +1 x149 +1 x154 +1 x159 +1 x164 +1 x169 +1 x174 +1 x179 +1 x184 +1 x189 +1 x194 +1 x199 +1 x204 +1 x209 +1 x214 +1 x219 >= 9;
-1 x129 -1 x134 -1 x139 -1 x144 -1 x149 -1 x154 -1 x159 -1 x164 -1 x169 -1 x174 -1 x179 -1 x184 -1 x189 -1 x194 -1 x199 -1 x204 -1 x209 -1 x214 -1 x219 >= -10;
+1 x130 +1 x135 +1 x140 +1 x145 +1 x150 +1 x155 +1 x160 +1 x165 +1 x170 +1 x175 +1 x180 +1 x185 +1 x190 +1 x195 +1 x200 +1 x205 +1 x210 +1 x215 +1 x220 >= 9;
-1 x130 -1 x135 -1 x140 -1 x145 -1 x150 -1 x155 -1 x160 -1 x165 -1 x170 -1 x175 -1 x180 -1 x185 -1 x190 -1 x195 -1 x200 -1 x205 -1 x210 -1 x215 -1 x220 >= -10;
+1 x131 +1 x136 +1 x141 +1 x146 +1 x151 +1 x156 +1 x161 +1 x166 +1 x171 +1 x176 +1 x181 +1 x186 +1 x191 +1 x196 +1 x201 +1 x206 +1 x211 +1 x216 +1 x221 >= 9;
-1 x131 -1 x136 -1 x141 -1 x146 -1 x151 -1 x156 -1 x161 -1 x166 -1 x171 -1 x176 -1 x181 -1 x186 -1 x191 -1 x196 -1 x201 -1 x206 -1 x211 -1 x216 -1 x221 >= -10;
+1 x132 +1 x137 +1 x142 +1 x147 +1 x152 +1 x157 +1 x162 +1 x167 +1 x172 +1 x177 +1 x182 +1 x187 +1 x192 +1 x197 +1 x202 +1 x207 +1 x212 +1 x217 +1 x222 >= 9;
-1 x132 -1 x137 -1 x142 -1 x147 -1 x152 -1 x157 -1 x162 -1 x167 -1 x172 -1 x177 -1 x182 -1 x187 -1 x192 -1 x197 -1 x202 -1 x207 -1 x212 -1 x217 -1 x222 >= -10;
+1 x133 +1 x138 +1 x143 +1 x148 +1 x153 +1 x158 +1 x163 +1 x168 +1 x173 +1 x178 +1 x183 +1 x188 +1 x193 +1 x198 +1 x203 +1 x208 +1 x213 +1 x218 +1 x223 >= 9;
-1 x133 -1 x138 -1 x143 -1 x148 -1 x153 -1 x158 -1 x163 -1 x168 -1 x173 -1 x178 -1 x183 -1 x188 -1 x193 -1 x198 -1 x203 -1 x208 -1 x213 -1 x218 -1 x223 >= -10;
+1 x134 +1 x139 +1 x144 +1 x149 +1 x154 +1 x159 +1 x164 +1 x169 +1 x174 +1 x179 +1 x184 +1 x189 +1 x194 +1 x199 +1 x204 +1 x209 +1 x214 +1 x219 +1 x224 >= 9;
-1 x134 -1 x139 -1 x144 -1 x149 -1 x154 -1 x159 -1 x164 -1 x169 -1 x174 -1 x179 -1 x184 -1 x189 -1 x194 -1 x199 -1 x204 -1 x209 -1 x214 -1 x219 -1 x224 >= -10;
+1 x135 +1 x140 +1 x145 +1 x150 +1 x155 +1 x160 +1 x165 +1 x170 +1 x175 +1 x180 +1 x185 +1 x190 +1 x195 +1 x200 +1 x205 +1 x210 +1 x215 +1 x220 +1 x225 >= 9;
-1 x135 -1 x140 -1 x145 -1 x150 -1 x155 -1 x160 -1 x165 -1 x170 -1 x175 -1 x180 -1 x185 -1 x190 -1 x195 -1 x200 -1 x205 -1 x210 -1 x215 -1 x220 -1 x225 >= -10;
+1 x136 +1 x141 +1 x146 +1 x151 +1 x156 +1 x161 +1 x166 +1 x171 +1 x176 +1 x181 +1 x186 +1 x191 +1 x196 +1 x201 +1 x206 +1 x211 +1 x216 +1 x221 +1 x226 >= 9;
-1 x136 -1 x141 -1 x146 -1 x151 -1 x156 -1 x161 -1 x166 -1 x171 -1 x176 -1 x181 -1 x186 -1 x191 -1 x196 -1 x201 -1 x206 -1 x211 -1 x216 -1 x221 -1 x226 >= -10;
+1 x137 +1 x142 +1 x147 +1 x152 +1 x157 +1 x162 +1 x167 +1 x172 +1 x177 +1 x182 +1 x187 +1 x192 +1 x197 +1 x202 +1 x207 +1 x212 +1 x217 +1 x222 +1 x227 >= 9;
-1 x137 -1 x142 -1 x147 -1 x152 -1 x157 -1 x162 -1 x167 -1 x172 -1 x177 -1 x182 -1 x187 -1 x192 -1 x197 -1 x202 -1 x207 -1 x212 -1 x217 -1 x222 -1 x227 >= -10;
+1 x138 +1 x143 +1 x148 +1 x153 +1 x158 +1 x163 +1 x168 +1 x173 +1 x178 +1 x183 +1 x188 +1 x193 +1 x198 +1 x203 +1 x208 +1 x213 +1 x218 +1 x223 +1 x228 >= 9;
-1 x138 -1 x143 -1 x148 -1 x153 -1 x158 -1 x163 -1 x168 -1 x173 -1 x178 -1 x183 -1 x188 -1 x193 -1 x198 -1 x203 -1 x208 -1 x213 -1 x218 -1 x223 -1 x228 >= -10;
+1 x139 +1 x144 +1 x149 +1 x154 +1 x159 +1 x164 +1 x169 +1 x174 +1 x179 +1 x184 +1 x189 +1 x194 +1 x199 +1 x204 +1 x209 +1 x214 +1 x219 +1 x224 +1 x229 >= 9;
-1 x139 -1 x144 -1 x149 -1 x154 -1 x159 -1 x164 -1 x169 -1 x174 -1 x179 -1 x184 -1 x189 -1 x194 -1 x199 -1 x204 -1 x209 -1 x214 -1 x219 -1 x224 -1 x229 >= -10;
+1 x140 +1 x145 +1 x150 +1 x155 +1 x160 +1 x165 +1 x170 +1 x175 +1 x180 +1 x185 +1 x190 +1 x195 +1 x200 +1 x205 +1 x210 +1 x215 +1 x220 +1 x225 +1 x230 >= 9;
-1 x140 -1 x145 -1 x150 -1 x155 -1 x160 -1 x165 -1 x170 -1 x175 -1 x180 -1 x185 -1 x190 -1 x195 -1 x200 -1 x205 -1 x210 -1 x215 -1 x220 -1 x225 -1 x230 >= -10;
+1 x141 +1 x146 +1 x151 +1 x156 +1 x161 +1 x166 +1 x171 +1 x176 +1 x181 +1 x186 +1 x191 +1 x196 +1 x201 +1 x206 +1 x211 +1 x216 +1 x221 +1 x226 +1 x231 >= 9;
-1 x141 -1 x146 -1 x151 -1 x156 -1 x161 -1 x166 -1 x171 -1 x176 -1 x181 -1 x186 -1 x191 -1 x196 -1 x201 -1 x206 -1 x211 -1 x216 -1 x221 -1 x226 -1 x231 >= -10;
+1 x142 +1 x147 +1 x152 +1 x157 +1 x162 +1 x167 +1 x172 +1 x177 +1 x182 +1 x187 +1 x192 +1 x197 +1 x202 +1 x207 +1 x212 +1 x217 +1 x222 +1 x227 +1 x232 >= 9;
-1 x142 -1 x147 -1 x152 -1 x157 -1 x162 -1 x167 -1 x172 -1 x177 -1 x182 -1 x187 -1 x192 -1 x197 -1 x202 -1 x207 -1 x212 -1 x217 -1 x222 -1 x227 -1 x232 >= -10;
+1 x143 +1 x148 +1 x153 +1 x158 +1 x163 +1 x168 +1 x173 +1 x178 +1 x183 +1 x188 +1 x193 +1 x198 +1 x203 +1 x208 +1 x213 +1 x218 +1 x223 +1 x228 +1 x233 >= 9;
-1 x143 -1 x148 -1 x153 -1 x158 -1 x163 -1 x168 -1 x173 -1 x178 -1 x183 -1 x188 -1 x193 -1 x198 -1 x203 -1 x208 -1 x213 -1 x218 -1 x223 -1 x228 -1 x233 >= -10;
+1 x144 +1 x149 +1 x154 +1 x159 +1 x164 +1 x169 +1 x174 +1 x179 +1 x184 +1 x189 +1 x194 +1 x199 +1 x204 +1 x209 +1 x214 +1 x219 +1 x224 +1 x229 +1 x234 >= 9;
-1 x144 -1 x149 -1 x154 -1 x159 -1 x164 -1 x169 -1 x174 -1 x179 -1 x184 -1 x189 -1 x194 -1 x199 -1 x204 -1 x209 -1 x214 -1 x219 -1 x224 -1 x229 -1 x234 >= -10;
+1 x145 +1 x150 +1 x155 +1 x160 +1 x165 +1 x170 +1 x175 +1 x180 +1 x185 +1 x190 +1 x195 +1 x200 +1 x205 +1 x210 +1 x215 +1 x220 +1 x225 +1 x230 +1 x235 >= 9;
-1 x145 -1 x150 -1 x155 -1 x160 -1 x165 -1 x170 -1 x175 -1 x180 -1 x185 -1 x190 -1 x195 -1 x200 -1 x205 -1 x210 -1 x215 -1 x220 -1 x225 -1 x230 -1 x235 >= -10;
+1 x146 +1 x151 +1 x156 +1 x161 +1 x166 +1 x171 +1 x176 +1 x181 +1 x186 +1 x191 +1 x196 +1 x201 +1 x206 +1 x211 +1 x216 +1 x221 +1 x226 +1 x231 +1 x236 >= 9;
-1 x146 -1 x151 -1 x156 -1 x161 -1 x166 -1 x171 -1 x176 -1 x181 -1 x186 -1 x191 -1 x196 -1 x201 -1 x206 -1 x211 -1 x216 -1 x221 -1 x226 -1 x231 -1 x236 >= -10;
+1 x147 +1 x152 +1 x157 +1 x162 +1 x167 +1 x172 +1 x177 +1 x182 +1 x187 +1 x192 +1 x197 +1 x202 +1 x207 +1 x212 +1 x217 +1 x222 +1 x227 +1 x232 +1 x237 >= 9;
-1 x147 -1 x152 -1 x157 -1 x162 -1 x167 -1 x172 -1 x177 -1 x182 -1 x187 -1 x192 -1 x197 -1 x202 -1 x207 -1 x212 -1 x217 -1 x222 -1 x227 -1 x232 -1 x237 >= -10;
+1 x148 +1 x153 +1 x158 +1 x163 +1 x168 +1 x173 +1 x178 +1 x183 +1 x188 +1 x193 +1 x198 +1 x203 +1 x208 +1 x213 +1 x218 +1 x223 +1 x228 +1 x233 +1 x238 >= 9;
-1 x148 -1 x153 -1 x158 -1 x163 -1 x168 -1 x173 -1 x178 -1 x183 -1 x188 -1 x193 -1 x198 -1 x203 -1 x208 -1 x213 -1 x218 -1 x223 -1 x228 -1 x233 -1 x238 >= -10;
+1 x149 +1 x154 +1 x159 +1 x164 +1 x169 +1 x174 +1 x179 +1 x184 +1 x189 +1 x194 +1 x199 +1 x204 +1 x209 +1 x214 +1 x219 +1 x224 +1 x229 +1 x234 +1 x239 >= 9;
-1 x149 -1 x154 -1 x159 -1 x164 -1 x169 -1 x174 -1 x179 -1 x184 -1 x189 -1 x194 -1 x199 -1 x204 -1 x209 -1 x214 -1 x219 -1 x224 -1 x229 -1 x234 -1 x239 >= -10;
+1 x150 +1 x155 +1 x160 +1 x165 +1 x170 +1 x175 +1 x180 +1 x185 +1 x190 +1 x195 +1 x200 +1 x205 +1 x210 +1 x215 +1 x220 +1 x225 +1 x230 +1 x235 +1 x240 >= 9;
-1 x150 -1 x155 -1 x160 -1 x165 -1 x170 -1 x175 -1 x180 -1 x185 -1 x190 -1 x195 -1 x200 -1 x205 -1 x210 -1 x215 -1 x220 -1 x225 -1 x230 -1 x235 -1 x240 >= -10;
+1 x151 +1 x156 +1 x161 +1 x166 +1 x171 +1 x176 +1 x181 +1 x186 +1 x191 +1 x196 +1 x201 +1 x206 +1 x211 +1 x216 +1 x221 +1 x226 +1 x231 +1 x236 +1 x241 >= 9;
-1 x151 -1 x156 -1 x161 -1 x166 -1 x171 -1 x176 -1 x181 -1 x186 -1 x191 -1 x196 -1 x201 -1 x206 -1 x211 -1 x216 -1 x221 -1 x226 -1 x231 -1 x236 -1 x241 >= -10;
+1 x152 +1 x157 +1 x162 +1 x167 +1 x172 +1 x177 +1 x182 +1 x187 +1 x192 +1 x197 +1 x202 +1 x207 +1 x212 +1 x217 +1 x222 +1 x227 +1 x232 +1 x237 +1 x242 >= 9;
-1 x152 -1 x157 -1 x162 -1 x167 -1 x172 -1 x177 -1 x182 -1 x187 -1 x192 -1 x197 -1 x202 -1 x207 -1 x212 -1 x217 -1 x222 -1 x227 -1 x232 -1 x237 -1 x242 >= -10;
+1 x153 +1 x158 +1 x163 +1 x168 +1 x173 +1 x178 +1 x183 +1 x188 +1 x193 +1 x198 +1 x203 +1 x208 +1 x213 +1 x218 +1 x223 +1 x228 +1 x233 +1 x238 +1 x243 >= 9;
-1 x153 -1 x158 -1 x163 -1 x168 -1 x173 -1 x178 -1 x183 -1 x188 -1 x193 -1 x198 -1 x203 -1 x208 -1 x213 -1 x218 -1 x223 -1 x228 -1 x233 -1 x238 -1 x243 >= -10;
+1 x154 +1 x159 +1 x164 +1 x169 +1 x174 +1 x179 +1 x184 +1 x189 +1 x194 +1 x199 +1 x204 +1 x209 +1 x214 +1 x219 +1 x224 +1 x229 +1 x234 +1 x239 +1 x244 >= 9;
-1 x154 -1 x159 -1 x164 -1 x169 -1 x174 -1 x179 -1 x184 -1 x189 -1 x194 -1 x199 -1 x204 -1 x209 -1 x214 -1 x219 -1 x224 -1 x229 -1 x234 -1 x239 -1 x244 >= -10;
+1 x155 +1 x160 +1 x165 +1 x170 +1 x175 +1 x180 +1 x185 +1 x190 +1 x195 +1 x200 +1 x205 +1 x210 +1 x215 +1 x220 +1 x225 +1 x230 +1 x235 +1 x240 +1 x245 >= 9;
-1 x155 -1 x160 -1 x165 -1 x170 -1 x175 -1 x180 -1 x185 -1 x190 -1 x195 -1 x200 -1 x205 -1 x210 -1 x215 -1 x220 -1 x225 -1 x230 -1 x235 -1 x240 -1 x245 >= -10;
+1 x156 +1 x161 +1 x166 +1 x171 +1 x176 +1 x181 +1 x186 +1 x191 +1 x196 +1 x201 +1 x206 +1 x211 +1 x216 +1 x221 +1 x226 +1 x231 +1 x236 +1 x241 +1 x246 >= 9;
-1 x156 -1 x161 -1 x166 -1 x171 -1 x176 -1 x181 -1 x186 -1 x191 -1 x196 -1 x201 -1 x206 -1 x211 -1 x216 -1 x221 -1 x226 -1 x231 -1 x236 -1 x241 -1 x246 >= -10;
+1 x157 +1 x162 +1 x167 +1 x172 +1 x177 +1 x182 +1 x187 +1 x192 +1 x197 +1 x202 +1 x207 +1 x212 +1 x217 +1 x222 +1 x227 +1 x232 +1 x237 +1 x242 +1 x247 >= 9;
-1 x157 -1 x162 -1 x167 -1 x172 -1 x177 -1 x182 -1 x187 -1 x192 -1 x197 -1 x202 -1 x207 -1 x212 -1 x217 -1 x222 -1 x227 -1 x232 -1 x237 -1 x242 -1 x247 >= -10;
+1 x158 +1 x163 +1 x168 +1 x173 +1 x178 +1 x183 +1 x188 +1 x193 +1 x198 +1 x203 +1 x208 +1 x213 +1 x218 +1 x223 +1 x228 +1 x233 +1 x238 +1 x243 +1 x248 >= 9;
-1 x158 -1 x163 -1 x168 -1 x173 -1 x178 -1 x183 -1 x188 -1 x193 -1 x198 -1 x203 -1 x208 -1 x213 -1 x218 -1 x223 -1 x228 -1 x233 -1 x238 -1 x243 -1 x248 >= -10;
+1 x159 +1 x164 +1 x169 +1 x174 +1 x179 +1 x184 +1 x189 +1 x194 +1 x199 +1 x204 +1 x209 +1 x214 +1 x219 +1 x224 +1 x229 +1 x234 +1 x239 +1 x244 +1 x249 >= 9;
-1 x159 -1 x164 -1 x169 -1 x174 -1 x179 -1 x184 -1 x189 -1 x194 -1 x199 -1 x204 -1 x209 -1 x214 -1 x219 -1 x224 -1 x229 -1 x234 -1 x239 -1 x244 -1 x249 >= -10;
+1 x160 +1 x165 +1 x170 +1 x175 +1 x180 +1 x185 +1 x190 +1 x195 +1 x200 +1 x205 +1 x210 +1 x215 +1 x220 +1 x225 +1 x230 +1 x235 +1 x240 +1 x245 +1 x250 >= 9;
-1 x160 -1 x165 -1 x170 -1 x175 -1 x180 -1 x185 -1 x190 -1 x195 -1 x200 -1 x205 -1 x210 -1 x215 -1 x220 -1 x225 -1 x230 -1 x235 -1 x240 -1 x245 -1 x250 >= -10;
+1 x161 +1 x166 +1 x171 +1 x176 +1 x181 +1 x186 +1 x191 +1 x196 +1 x201 +1 x206 +1 x211 +1 x216 +1 x221 +1 x226 +1 x231 +1 x236 +1 x241 +1 x246 +1 x251 >= 9;
-1 x161 -1 x166 -1 x171 -1 x176 -1 x181 -1 x186 -1 x191 -1 x196 -1 x201 -1 x206 -1 x211 -1 x216 -1 x221 -1 x226 -1 x231 -1 x236 -1 x241 -1 x246 -1 x251 >= -10;
+1 x162 +1 x167 +1 x172 +1 x177 +1 x182 +1 x187 +1 x192 +1 x197 +1 x202 +1 x207 +1 x212 +1 x217 +1 x222 +1 x227 +1 x232 +1 x237 +1 x242 +1 x247 +1 x252 >= 9;
-1 x162 -1 x167 -1 x172 -1 x177 -1 x182 -1 x187 -1 x192 -1 x197 -1 x202 -1 x207 -1 x212 -1 x217 -1 x222 -1 x227 -1 x232 -1 x237 -1 x242 -1 x247 -1 x252 >= -10;
+1 x163 +1 x168 +1 x173 +1 x178 +1 x183 +1 x188 +1 x193 +1 x198 +1 x203 +1 x208 +1 x213 +1 x218 +1 x223 +1 x228 +1 x233 +1 x238 +1 x243 +1 x248 +1 x253 >= 9;
-1 x163 -1 x168 -1 x173 -1 x178 -1 x183 -1 x188 -1 x193 -1 x198 -1 x203 -1 x208 -1 x213 -1 x218 -1 x223 -1 x228 -1 x233 -1 x238 -1 x243 -1 x248 -1 x253 >= -10;
+1 x164 +1 x169 +1 x174 +1 x179 +1 x184 +1 x189 +1 x194 +1 x199 +1 x204 +1 x209 +1 x214 +1 x219 +1 x224 +1 x229 +1 x234 +1 x239 +1 x244 +1 x249 +1 x254 >= 9;
-1 x164 -1 x169 -1 x174 -1 x179 -1 x184 -1 x189 -1 x194 -1 x199 -1 x204 -1 x209 -1 x214 -1 x219 -1 x224 -1 x229 -1 x234 -1 x239 -1 x244 -1 x249 -1 x254 >= -10;
+1 x165 +1 x170 +1 x175 +1 x180 +1 x185 +1 x190 +1 x195 +1 x200 +1 x205 +1 x210 +1 x215 +1 x220 +1 x225 +1 x230 +1 x235 +1 x240 +1 x245 +1 x250 +1 x255 >= 9;
-1 x165 -1 x170 -1 x175 -1 x180 -1 x185 -1 x190 -1 x195 -1 x200 -1 x205 -1 x210 -1 x215 -1 x220 -1 x225 -1 x230 -1 x235 -1 x240 -1 x245 -1 x250 -1 x255 >= -10;
+1 x166 +1 x171 +1 x176 +1 x181 +1 x186 +1 x191 +1 x196 +1 x201 +1 x206 +1 x211 +1 x216 +1 x221 +1 x226 +1 x231 +1 x236 +1 x241 +1 x246 +1 x251 +1 x256 >= 9;
-1 x166 -1 x171 -1 x176 -1 x181 -1 x186 -1 x191 -1 x196 -1 x201 -1 x206 -1 x211 -1 x216 -1 x221 -1 x226 -1 x231 -1 x236 -1 x241 -1 x246 -1 x251 -1 x256 >= -10;
+1 x167 +1 x172 +1 x177 +1 x182 +1 x187 +1 x192 +1 x197 +1 x202 +1 x207 +1 x212 +1 x217 +1 x222 +1 x227 +1 x232 +1 x237 +1 x242 +1 x247 +1 x252 +1 x257 >= 9;
-1 x167 -1 x172 -1 x177 -1 x182 -1 x187 -1 x192 -1 x197 -1 x202 -1 x207 -1 x212 -1 x217 -1 x222 -1 x227 -1 x232 -1 x237 -1 x242 -1 x247 -1 x252 -1 x257 >= -10;
+1 x168 +1 x173 +1 x178 +1 x183 +1 x188 +1 x193 +1 x198 +1 x203 +1 x208 +1 x213 +1 x218 +1 x223 +1 x228 +1 x233 +1 x238 +1 x243 +1 x248 +1 x253 +1 x258 >= 9;
-1 x168 -1 x173 -1 x178 -1 x183 -1 x188 -1 x193 -1 x198 -1 x203 -1 x208 -1 x213 -1 x218 -1 x223 -1 x228 -1 x233 -1 x238 -1 x243 -1 x248 -1 x253 -1 x258 >= -10;
+1 x169 +1 x174 +1 x179 +1 x184 +1 x189 +1 x194 +1 x199 +1 x204 +1 x209 +1 x214 +1 x219 +1 x224 +1 x229 +1 x234 +1 x239 +1 x244 +1 x249 +1 x254 +1 x259 >= 9;
-1 x169 -1 x174 -1 x179 -1 x184 -1 x189 -1 x194 -1 x199 -1 x204 -1 x209 -1 x214 -1 x219 -1 x224 -1 x229 -1 x234 -1 x239 -1 x244 -1 x249 -1 x254 -1 x259 >= -10;
+1 x170 +1 x175 +1 x180 +1 x185 +1 x190 +1 x195 +1 x200 +1 x205 +1 x210 +1 x215 +1 x220 +1 x225 +1 x230 +1 x235 +1 x240 +1 x245 +1 x250 +1 x255 +1 x260 >= 9;
-1 x170 -1 x175 -1 x180 -1 x185 -1 x190 -1 x195 -1 x200 -1 x205 -1 x210 -1 x215 -1 x220 -1 x225 -1 x230 -1 x235 -1 x240 -1 x245 -1 x250 -1 x255 -1 x260 >= -10;
+1 x171 +1 x176 +1 x181 +1 x186 +1 x191 +1 x196 +1 x201 +1 x206 +1 x211 +1 x216 +1 x221 +1 x226 +1 x231 +1 x236 +1 x241 +1 x246 +1 x251 +1 x256 +1 x261 >= 9;
-1 x171 -1 x176 -1 x181 -1 x186 -1 x191 -1 x196 -1 x201 -1 x206 -1 x211 -1 x216 -1 x221 -1 x226 -1 x231 -1 x236 -1 x241 -1 x246 -1 x251 -1 x256 -1 x261 >= -10;
+1 x172 +1 x177 +1 x182 +1 x187 +1 x192 +1 x197 +1 x202 +1 x207 +1 x212 +1 x217 +1 x222 +1 x227 +1 x232 +1 x237 +1 x242 +1 x247 +1 x252 +1 x257 +1 x262 >= 9;
-1 x172 -1 x177 -1 x182 -1 x187 -1 x192 -1 x197 -1 x202 -1 x207 -1 x212 -1 x217 -1 x222 -1 x227 -1 x232 -1 x237 -1 x242 -1 x247 -1 x252 -1 x257 -1 x262 >= -10;
+1 x173 +1 x178 +1 x183 +1 x188 +1 x193 +1 x198 +1 x203 +1 x208 +1 x213 +1 x218 +1 x223 +1 x228 +1 x233 +1 x238 +1 x243 +1 x248 +1 x253 +1 x258 +1 x263 >= 9;
-1 x173 -1 x178 -1 x183 -1 x188 -1 x193 -1 x198 -1 x203 -1 x208 -1 x213 -1 x218 -1 x223 -1 x228 -1 x233 -1 x238 -1 x243 -1 x248 -1 x253 -1 x258 -1 x263 >= -10;
+1 x174 +1 x179 +1 x184 +1 x189 +1 x194 +1 x199 +1 x204 +1 x209 +1 x214 +1 x219 +1 x224 +1 x229 +1 x234 +1 x239 +1 x244 +1 x249 +1 x254 +1 x259 +1 x264 >= 9;
-1 x174 -1 x179 -1 x184 -1 x189 -1 x194 -1 x199 -1 x204 -1 x209 -1 x214 -1 x219 -1 x224 -1 x229 -1 x234 -1 x239 -1 x244 -1 x249 -1 x254 -1 x259 -1 x264 >= -10;
+1 x175 +1 x180 +1 x185 +1 x190 +1 x195 +1 x200 +1 x205 +1 x210 +1 x215 +1 x220 +1 x225 +1 x230 +1 x235 +1 x240 +1 x245 +1 x250 +1 x255 +1 x260 +1 x265 >= 9;
-1 x175 -1 x180 -1 x185 -1 x190 -1 x195 -1 x200 -1 x205 -1 x210 -1 x215 -1 x220 -1 x225 -1 x230 -1 x235 -1 x240 -1 x245 -1 x250 -1 x255 -1 x260 -1 x265 >= -10;
+1 x176 +1 x181 +1 x186 +1 x191 +1 x196 +1 x201 +1 x206 +1 x211 +1 x216 +1 x221 +1 x226 +1 x231 +1 x236 +1 x241 +1 x246 +1 x251 +1 x256 +1 x261 +1 x266 >= 9;
-1 x176 -1 x181 -1 x186 -1 x191 -1 x196 -1 x201 -1 x206 -1 x211 -1 x216 -1 x221 -1 x226 -1 x231 -1 x236 -1 x241 -1 x246 -1 x251 -1 x256 -1 x261 -1 x266 >= -10;
+1 x177 +1 x182 +1 x187 +1 x192 +1 x197 +1 x202 +1 x207 +1 x212 +1 x217 +1 x222 +1 x227 +1 x232 +1 x237 +1 x242 +1 x247 +1 x252 +1 x257 +1 x262 +1 x267 >= 9;
-1 x177 -1 x182 -1 x187 -1 x192 -1 x197 -1 x202 -1 x207 -1 x212 -1 x217 -1 x222 -1 x227 -1 x232 -1 x237 -1 x242 -1 x247 -1 x252 -1 x257 -1 x262 -1 x267 >= -10;
+1 x178 +1 x183 +1 x188 +1 x193 +1 x198 +1 x203 +1 x208 +1 x213 +1 x218 +1 x223 +1 x228 +1 x233 +1 x238 +1 x243 +1 x248 +1 x253 +1 x258 +1 x263 +1 x268 >= 9;
-1 x178 -1 x183 -1 x188 -1 x193 -1 x198 -1 x203 -1 x208 -1 x213 -1 x218 -1 x223 -1 x228 -1 x233 -1 x238 -1 x243 -1 x248 -1 x253 -1 x258 -1 x263 -1 x268 >= -10;
+1 x179 +1 x184 +1 x189 +1 x194 +1 x199 +1 x204 +1 x209 +1 x214 +1 x219 +1 x224 +1 x229 +1 x234 +1 x239 +1 x244 +1 x249 +1 x254 +1 x259 +1 x264 +1 x269 >= 9;
-1 x179 -1 x184 -1 x189 -1 x194 -1 x199 -1 x204 -1 x209 -1 x214 -1 x219 -1 x224 -1 x229 -1 x234 -1 x239 -1 x244 -1 x249 -1 x254 -1 x259 -1 x264 -1 x269 >= -10;
+1 x180 +1 x185 +1 x190 +1 x195 +1 x200 +1 x205 +1 x210 +1 x215 +1 x220 +1 x225 +1 x230 +1 x235 +1 x240 +1 x245 +1 x250 +1 x255 +1 x260 +1 x265 +1 x270 >= 9;
-1 x180 -1 x185 -1 x190 -1 x195 -1 x200 -1 x205 -1 x210 -1 x215 -1 x220 -1 x225 -1 x230 -1 x235 -1 x240 -1 x245 -1 x250 -1 x255 -1 x260 -1 x265 -1 x270 >= -10;
+1 x181 +1 x186 +1 x191 +1 x196 +1 x201 +1 x206 +1 x211 +1 x216 +1 x221 +1 x226 +1 x231 +1 x236 +1 x241 +1 x246 +1 x251 +1 x256 +1 x261 +1 x266 +1 x271 >= 9;
-1 x181 -1 x186 -1 x191 -1 x196 -1 x201 -1 x206 -1 x211 -1 x216 -1 x221 -1 x226 -1 x231 -1 x236 -1 x241 -1 x246 -1 x251 -1 x256 -1 x261 -1 x266 -1 x271 >= -10;
+1 x182 +1 x187 +1 x192 +1 x197 +1 x202 +1 x207 +1 x212 +1 x217 +1 x222 +1 x227 +1 x232 +1 x237 +1 x242 +1 x247 +1 x252 +1 x257 +1 x262 +1 x267 +1 x272 >= 9;
-1 x182 -1 x187 -1 x192 -1 x197 -1 x202 -1 x207 -1 x212 -1 x217 -1 x222 -1 x227 -1 x232 -1 x237 -1 x242 -1 x247 -1 x252 -1 x257 -1 x262 -1 x267 -1 x272 >= -10;
+1 x183 +1 x188 +1 x193 +1 x198 +1 x203 +1 x208 +1 x213 +1 x218 +1 x223 +1 x228 +1 x233 +1 x238 +1 x243 +1 x248 +1 x253 +1 x258 +1 x263 +1 x268 +1 x273 >= 9;
-1 x183 -1 x188 -1 x193 -1 x198 -1 x203 -1 x208 -1 x213 -1 x218 -1 x223 -1 x228 -1 x233 -1 x238 -1 x243 -1 x248 -1 x253 -1 x258 -1 x263 -1 x268 -1 x273 >= -10;
+1 x184 +1 x189 +1 x194 +1 x199 +1 x204 +1 x209 +1 x214 +1 x219 +1 x224 +1 x229 +1 x234 +1 x239 +1 x244 +1 x249 +1 x254 +1 x259 +1 x264 +1 x269 +1 x274 >= 9;
-1 x184 -1 x189 -1 x194 -1 x199 -1 x204 -1 x209 -1 x214 -1 x219 -1 x224 -1 x229 -1 x234 -1 x239 -1 x244 -1 x249 -1 x254 -1 x259 -1 x264 -1 x269 -1 x274 >= -10;
+1 x185 +1 x190 +1 x195 +1 x200 +1 x205 +1 x210 +1 x215 +1 x220 +1 x225 +1 x230 +1 x235 +1 x240 +1 x245 +1 x250 +1 x255 +1 x260 +1 x265 +1 x270 +1 x275 >= 9;
-1 x185 -1 x190 -1 x195 -1 x200 -1 x205 -1 x210 -1 x215 -1 x220 -1 x225 -1 x230 -1 x235 -1 x240 -1 x245 -1 x250 -1 x255 -1 x260 -1 x265 -1 x270 -1 x275 >= -10;
+1 x186 +1 x191 +1 x196 +1 x201 +1 x206 +1 x211 +1 x216 +1 x221 +1 x226 +1 x231 +1 x236 +1 x241 +1 x246 +1 x251 +1 x256 +1 x261 +1 x266 +1 x271 +1 x276 >= 9;
-1 x186 -1 x191 -1 x196 -1 x201 -1 x206 -1 x211 -1 x216 -1 x221 -1 x226 -1 x231 -1 x236 -1 x241 -1 x246 -1 x251 -1 x256 -1 x261 -1 x266 -1 x271 -1 x276 >= -10;
+1 x187 +1 x192 +1 x197 +1 x202 +1 x207 +1 x212 +1 x217 +1 x222 +1 x227 +1 x232 +1 x237 +1 x242 +1 x247 +1 x252 +1 x257 +1 x262 +1 x267 +1 x272 +1 x277 >= 9;
-1 x187 -1 x192 -1 x197 -1 x202 -1 x207 -1 x212 -1 x217 -1 x222 -1 x227 -1 x232 -1 x237 -1 x242 -1 x247 -1 x252 -1 x257 -1 x262 -1 x267 -1 x272 -1 x277 >= -10;
+1 x188 +1 x193 +1 x198 +1 x203 +1 x208 +1 x213 +1 x218 +1 x223 +1 x228 +1 x233 +1 x238 +1 x243 +1 x248 +1 x253 +1 x258 +1 x263 +1 x268 +1 x273 +1 x278 >= 9;
-1 x188 -1 x193 -1 x198 -1 x203 -1 x208 -1 x213 -1 x218 -1 x223 -1 x228 -1 x233 -1 x238 -1 x243 -1 x248 -1 x253 -1 x258 -1 x263 -1 x268 -1 x273 -1 x278 >= -10;
+1 x189 +1 x194 +1 x199 +1 x204 +1 x209 +1 x214 +1 x219 +1 x224 +1 x229 +1 x234 +1 x239 +1 x244 +1 x249 +1 x254 +1 x259 +1 x264 +1 x269 +1 x274 +1 x279 >= 9;
-1 x189 -1 x194 -1 x199 -1 x204 -1 x209 -1 x214 -1 x219 -1 x224 -1 x229 -1 x234 -1 x239 -1 x244 -1 x249 -1 x254 -1 x259 -1 x264 -1 x269 -1 x274 -1 x279 >= -10;
+1 x190 +1 x195 +1 x200 +1 x205 +1 x210 +1 x215 +1 x220 +1 x225 +1 x230 +1 x235 +1 x240 +1 x245 +1 x250 +1 x255 +1 x260 +1 x265 +1 x270 +1 x275 +1 x280 >= 9;
-1 x190 -1 x195 -1 x200 -1 x205 -1 x210 -1 x215 -1 x220 -1 x225 -1 x230 -1 x235 -1 x240 -1 x245 -1 x250 -1 x255 -1 x260 -1 x265 -1 x270 -1 x275 -1 x280 >= -10;
+1 x191 +1 x196 +1 x201 +1 x206 +1 x211 +1 x216 +1 x221 +1 x226 +1 x231 +1 x236 +1 x241 +1 x246 +1 x251 +1 x256 +1 x261 +1 x266 +1 x271 +1 x276 +1 x281 >= 9;
-1 x191 -1 x196 -1 x201 -1 x206 -1 x211 -1 x216 -1 x221 -1 x226 -1 x231 -1 x236 -1 x241 -1 x246 -1 x251 -1 x256 -1 x261 -1 x266 -1 x271 -1 x276 -1 x281 >= -10;
+1 x192 +1 x197 +1 x202 +1 x207 +1 x212 +1 x217 +1 x222 +1 x227 +1 x232 +1 x237 +1 x242 +1 x247 +1 x252 +1 x257 +1 x262 +1 x267 +1 x272 +1 x277 +1 x282 >= 9;
-1 x192 -1 x197 -1 x202 -1 x207 -1 x212 -1 x217 -1 x222 -1 x227 -1 x232 -1 x237 -1 x242 -1 x247 -1 x252 -1 x257 -1 x262 -1 x267 -1 x272 -1 x277 -1 x282 >= -10;
+1 x193 +1 x198 +1 x203 +1 x208 +1 x213 +1 x218 +1 x223 +1 x228 +1 x233 +1 x238 +1 x243 +1 x248 +1 x253 +1 x258 +1 x263 +1 x268 +1 x273 +1 x278 +1 x283 >= 9;
-1 x193 -1 x198 -1 x203 -1 x208 -1 x213 -1 x218 -1 x223 -1 x228 -1 x233 -1 x238 -1 x243 -1 x248 -1 x253 -1 x258 -1 x263 -1 x268 -1 x273 -1 x278 -1 x283 >= -10;
+1 x194 +1 x199 +1 x204 +1 x209 +1 x214 +1 x219 +1 x224 +1 x229 +1 x234 +1 x239 +1 x244 +1 x249 +1 x254 +1 x259 +1 x264 +1 x269 +1 x274 +1 x279 +1 x284 >= 9;
-1 x194 -1 x199 -1 x204 -1 x209 -1 x214 -1 x219 -1 x224 -1 x229 -1 x234 -1 x239 -1 x244 -1 x249 -1 x254 -1 x259 -1 x264 -1 x269 -1 x274 -1 x279 -1 x284 >= -10;
+1 x195 +1 x200 +1 x205 +1 x210 +1 x215 +1 x220 +1 x225 +1 x230 +1 x235 +1 x240 +1 x245 +1 x250 +1 x255 +1 x260 +1 x265 +1 x270 +1 x275 +1 x280 +1 x285 >= 9;
-1 x195 -1 x200 -1 x205 -1 x210 -1 x215 -1 x220 -1 x225 -1 x230 -1 x235 -1 x240 -1 x245 -1 x250 -1 x255 -1 x260 -1 x265 -1 x270 -1 x275 -1 x280 -1 x285 >= -10;
+1 x196 +1 x201 +1 x206 +1 x211 +1 x216 +1 x221 +1 x226 +1 x231 +1 x236 +1 x241 +1 x246 +1 x251 +1 x256 +1 x261 +1 x266 +1 x271 +1 x276 +1 x281 +1 x286 >= 9;
-1 x196 -1 x201 -1 x206 -1 x211 -1 x216 -1 x221 -1 x226 -1 x231 -1 x236 -1 x241 -1 x246 -1 x251 -1 x256 -1 x261 -1 x266 -1 x271 -1 x276 -1 x281 -1 x286 >= -10;
+1 x197 +1 x202 +1 x207 +1 x212 +1 x217 +1 x222 +1 x227 +1 x232 +1 x237 +1 x242 +1 x247 +1 x252 +1 x257 +1 x262 +1 x267 +1 x272 +1 x277 +1 x282 +1 x287 >= 9;
-1 x197 -1 x202 -1 x207 -1 x212 -1 x217 -1 x222 -1 x227 -1 x232 -1 x237 -1 x242 -1 x247 -1 x252 -1 x257 -1 x262 -1 x267 -1 x272 -1 x277 -1 x282 -1 x287 >= -10;
+1 x198 +1 x203 +1 x208 +1 x213 +1 x218 +1 x223 +1 x228 +1 x233 +1 x238 +1 x243 +1 x248 +1 x253 +1 x258 +1 x263 +1 x268 +1 x273 +1 x278 +1 x283 +1 x288 >= 9;
-1 x198 -1 x203 -1 x208 -1 x213 -1 x218 -1 x223 -1 x228 -1 x233 -1 x238 -1 x243 -1 x248 -1 x253 -1 x258 -1 x263 -1 x268 -1 x273 -1 x278 -1 x283 -1 x288 >= -10;
+1 x199 +1 x204 +1 x209 +1 x214 +1 x219 +1 x224 +1 x229 +1 x234 +1 x239 +1 x244 +1 x249 +1 x254 +1 x259 +1 x264 +1 x269 +1 x274 +1 x279 +1 x284 +1 x289 >= 9;
-1 x199 -1 x204 -1 x209 -1 x214 -1 x219 -1 x224 -1 x229 -1 x234 -1 x239 -1 x244 -1 x249 -1 x254 -1 x259 -1 x264 -1 x269 -1 x274 -1 x279 -1 x284 -1 x289 >= -10;
+1 x200 +1 x205 +1 x210 +1 x215 +1 x220 +1 x225 +1 x230 +1 x235 +1 x240 +1 x245 +1 x250 +1 x255 +1 x260 +1 x265 +1 x270 +1 x275 +1 x280 +1 x285 +1 x290 >= 9;
-1 x200 -1 x205 -1 x210 -1 x215 -1 x220 -1 x225 -1 x230 -1 x235 -1 x240 -1 x245 -1 x250 -1 x255 -1 x260 -1 x265 -1 x270 -1 x275 -1 x280 -1 x285 -1 x290 >= -10;
+1 x201 +1 x206 +1 x211 +1 x216 +1 x221 +1 x226 +1 x231 +1 x236 +1 x241 +1 x246 +1 x251 +1 x256 +1 x261 +1 x266 +1 x271 +1 x276 +1 x281 +1 x286 +1 x291 >= 9;
-1 x201 -1 x206 -1 x211 -1 x216 -1 x221 -1 x226 -1 x231 -1 x236 -1 x241 -1 x246 -1 x251 -1 x256 -1 x261 -1 x266 -1 x271 -1 x276 -1 x281 -1 x286 -1 x291 >= -10;
+1 x202 +1 x207 +1 x212 +1 x217 +1 x222 +1 x227 +1 x232 +1 x237 +1 x242 +1 x247 +1 x252 +1 x257 +1 x262 +1 x267 +1 x272 +1 x277 +1 x282 +1 x287 +1 x292 >= 9;
-1 x202 -1 x207 -1 x212 -1 x217 -1 x222 -1 x227 -1 x232 -1 x237 -1 x242 -1 x247 -1 x252 -1 x257 -1 x262 -1 x267 -1 x272 -1 x277 -1 x282 -1 x287 -1 x292 >= -10;
+1 x203 +1 x208 +1 x213 +1 x218 +1 x223 +1 x228 +1 x233 +1 x238 +1 x243 +1 x248 +1 x253 +1 x258 +1 x263 +1 x268 +1 x273 +1 x278 +1 x283 +1 x288 +1 x293 >= 9;
-1 x203 -1 x208 -1 x213 -1 x218 -1 x223 -1 x228 -1 x233 -1 x238 -1 x243 -1 x248 -1 x253 -1 x258 -1 x263 -1 x268 -1 x273 -1 x278 -1 x283 -1 x288 -1 x293 >= -10;
+1 x204 +1 x209 +1 x214 +1 x219 +1 x224 +1 x229 +1 x234 +1 x239 +1 x244 +1 x249 +1 x254 +1 x259 +1 x264 +1 x269 +1 x274 +1 x279 +1 x284 +1 x289 +1 x294 >= 9;
-1 x204 -1 x209 -1 x214 -1 x219 -1 x224 -1 x229 -1 x234 -1 x239 -1 x244 -1 x249 -1 x254 -1 x259 -1 x264 -1 x269 -1 x274 -1 x279 -1 x284 -1 x289 -1 x294 >= -10;
+1 x205 +1 x210 +1 x215 +1 x220 +1 x225 +1 x230 +1 x235 +1 x240 +1 x245 +1 x250 +1 x255 +1 x260 +1 x265 +1 x270 +1 x275 +1 x280 +1 x285 +1 x290 +1 x295 >= 9;
-1 x205 -1 x210 -1 x215 -1 x220 -1 x225 -1 x230 -1 x235 -1 x240 -1 x245 -1 x250 -1 x255 -1 x260 -1 x265 -1 x270 -1 x275 -1 x280 -1 x285 -1 x290 -1 x295 >= -10;
+1 x206 +1 x211 +1 x216 +1 x221 +1 x226 +1 x231 +1 x236 +1 x241 +1 x246 +1 x251 +1 x256 +1 x261 +1 x266 +1 x271 +1 x276 +1 x281 +1 x286 +1 x291 +1 x296 >= 9;
-1 x206 -1 x211 -1 x216 -1 x221 -1 x226 -1 x231 -1 x236 -1 x241 -1 x246 -1 x251 -1 x256 -1 x261 -1 x266 -1 x271 -1 x276 -1 x281 -1 x286 -1 x291 -1 x296 >= -10;
+1 x207 +1 x212 +1 x217 +1 x222 +1 x227 +1 x232 +1 x237 +1 x242 +1 x247 +1 x252 +1 x257 +1 x262 +1 x267 +1 x272 +1 x277 +1 x282 +1 x287 +1 x292 +1 x297 >= 9;
-1 x207 -1 x212 -1 x217 -1 x222 -1 x227 -1 x232 -1 x237 -1 x242 -1 x247 -1 x252 -1 x257 -1 x262 -1 x267 -1 x272 -1 x277 -1 x282 -1 x287 -1 x292 -1 x297 >= -10;
+1 x208 +1 x213 +1 x218 +1 x223 +1 x228 +1 x233 +1 x238 +1 x243 +1 x248 +1 x253 +1 x258 +1 x263 +1 x268 +1 x273 +1 x278 +1 x283 +1 x288 +1 x293 +1 x298 >= 9;
-1 x208 -1 x213 -1 x218 -1 x223 -1 x228 -1 x233 -1 x238 -1 x243 -1 x248 -1 x253 -1 x258 -1 x263 -1 x268 -1 x273 -1 x278 -1 x283 -1 x288 -1 x293 -1 x298 >= -10;
+1 x209 +1 x214 +1 x219 +1 x224 +1 x229 +1 x234 +1 x239 +1 x244 +1 x249 +1 x254 +1 x259 +1 x264 +1 x269 +1 x274 +1 x279 +1 x284 +1 x289 +1 x294 +1 x299 >= 9;
-1 x209 -1 x214 -1 x219 -1 x224 -1 x229 -1 x234 -1 x239 -1 x244 -1 x249 -1 x254 -1 x259 -1 x264 -1 x269 -1 x274 -1 x279 -1 x284 -1 x289 -1 x294 -1 x299 >= -10;
+1 x210 +1 x215 +1 x220 +1 x225 +1 x230 +1 x235 +1 x240 +1 x245 +1 x250 +1 x255 +1 x260 +1 x265 +1 x270 +1 x275 +1 x280 +1 x285 +1 x290 +1 x295 +1 x300 >= 9;
-1 x210 -1 x215 -1 x220 -1 x225 -1 x230 -1 x235 -1 x240 -1 x245 -1 x250 -1 x255 -1 x260 -1 x265 -1 x270 -1 x275 -1 x280 -1 x285 -1 x290 -1 x295 -1 x300 >= -10;
+1 x211 +1 x216 +1 x221 +1 x226 +1 x231 +1 x236 +1 x241 +1 x246 +1 x251 +1 x256 +1 x261 +1 x266 +1 x271 +1 x276 +1 x281 +1 x286 +1 x291 +1 x296 +1 x301 >= 9;
-1 x211 -1 x216 -1 x221 -1 x226 -1 x231 -1 x236 -1 x241 -1 x246 -1 x251 -1 x256 -1 x261 -1 x266 -1 x271 -1 x276 -1 x281 -1 x286 -1 x291 -1 x296 -1 x301 >= -10;
+1 x212 +1 x217 +1 x222 +1 x227 +1 x232 +1 x237 +1 x242 +1 x247 +1 x252 +1 x257 +1 x262 +1 x267 +1 x272 +1 x277 +1 x282 +1 x287 +1 x292 +1 x297 +1 x302 >= 9;
-1 x212 -1 x217 -1 x222 -1 x227 -1 x232 -1 x237 -1 x242 -1 x247 -1 x252 -1 x257 -1 x262 -1 x267 -1 x272 -1 x277 -1 x282 -1 x287 -1 x292 -1 x297 -1 x302 >= -10;
+1 x213 +1 x218 +1 x223 +1 x228 +1 x233 +1 x238 +1 x243 +1 x248 +1 x253 +1 x258 +1 x263 +1 x268 +1 x273 +1 x278 +1 x283 +1 x288 +1 x293 +1 x298 +1 x303 >= 9;
-1 x213 -1 x218 -1 x223 -1 x228 -1 x233 -1 x238 -1 x243 -1 x248 -1 x253 -1 x258 -1 x263 -1 x268 -1 x273 -1 x278 -1 x283 -1 x288 -1 x293 -1 x298 -1 x303 >= -10;
+1 x214 +1 x219 +1 x224 +1 x229 +1 x234 +1 x239 +1 x244 +1 x249 +1 x254 +1 x259 +1 x264 +1 x269 +1 x274 +1 x279 +1 x284 +1 x289 +1 x294 +1 x299 +1 x304 >= 9;
-1 x214 -1 x219 -1 x224 -1 x229 -1 x234 -1 x239 -1 x244 -1 x249 -1 x254 -1 x259 -1 x264 -1 x269 -1 x274 -1 x279 -1 x284 -1 x289 -1 x294 -1 x299 -1 x304 >= -10;
+1 x215 +1 x220 +1 x225 +1 x230 +1 x235 +1 x240 +1 x245 +1 x250 +1 x255 +1 x260 +1 x265 +1 x270 +1 x275 +1 x280 +1 x285 +1 x290 +1 x295 +1 x300 +1 x305 >= 9;
-1 x215 -1 x220 -1 x225 -1 x230 -1 x235 -1 x240 -1 x245 -1 x250 -1 x255 -1 x260 -1 x265 -1 x270 -1 x275 -1 x280 -1 x285 -1 x290 -1 x295 -1 x300 -1 x305 >= -10;
+1 x216 +1 x221 +1 x226 +1 x231 +1 x236 +1 x241 +1 x246 +1 x251 +1 x256 +1 x261 +1 x266 +1 x271 +1 x276 +1 x281 +1 x286 +1 x291 +1 x296 +1 x301 +1 x306 >= 9;
-1 x216 -1 x221 -1 x226 -1 x231 -1 x236 -1 x241 -1 x246 -1 x251 -1 x256 -1 x261 -1 x266 -1 x271 -1 x276 -1 x281 -1 x286 -1 x291 -1 x296 -1 x301 -1 x306 >= -10;
+1 x217 +1 x222 +1 x227 +1 x232 +1 x237 +1 x242 +1 x247 +1 x252 +1 x257 +1 x262 +1 x267 +1 x272 +1 x277 +1 x282 +1 x287 +1 x292 +1 x297 +1 x302 +1 x307 >= 9;
-1 x217 -1 x222 -1 x227 -1 x232 -1 x237 -1 x242 -1 x247 -1 x252 -1 x257 -1 x262 -1 x267 -1 x272 -1 x277 -1 x282 -1 x287 -1 x292 -1 x297 -1 x302 -1 x307 >= -10;
+1 x218 +1 x223 +1 x228 +1 x233 +1 x238 +1 x243 +1 x248 +1 x253 +1 x258 +1 x263 +1 x268 +1 x273 +1 x278 +1 x283 +1 x288 +1 x293 +1 x298 +1 x303 +1 x308 >= 9;
-1 x218 -1 x223 -1 x228 -1 x233 -1 x238 -1 x243 -1 x248 -1 x253 -1 x258 -1 x263 -1 x268 -1 x273 -1 x278 -1 x283 -1 x288 -1 x293 -1 x298 -1 x303 -1 x308 >= -10;
+1 x219 +1 x224 +1 x229 +1 x234 +1 x239 +1 x244 +1 x249 +1 x254 +1 x259 +1 x264 +1 x269 +1 x274 +1 x279 +1 x284 +1 x289 +1 x294 +1 x299 +1 x304 +1 x309 >= 9;
-1 x219 -1 x224 -1 x229 -1 x234 -1 x239 -1 x244 -1 x249 -1 x254 -1 x259 -1 x264 -1 x269 -1 x274 -1 x279 -1 x284 -1 x289 -1 x294 -1 x299 -1 x304 -1 x309 >= -10;
+1 x220 +1 x225 +1 x230 +1 x235 +1 x240 +1 x245 +1 x250 +1 x255 +1 x260 +1 x265 +1 x270 +1 x275 +1 x280 +1 x285 +1 x290 +1 x295 +1 x300 +1 x305 +1 x310 >= 9;
-1 x220 -1 x225 -1 x230 -1 x235 -1 x240 -1 x245 -1 x250 -1 x255 -1 x260 -1 x265 -1 x270 -1 x275 -1 x280 -1 x285 -1 x290 -1 x295 -1 x300 -1 x305 -1 x310 >= -10;
+1 x221 +1 x226 +1 x231 +1 x236 +1 x241 +1 x246 +1 x251 +1 x256 +1 x261 +1 x266 +1 x271 +1 x276 +1 x281 +1 x286 +1 x291 +1 x296 +1 x301 +1 x306 +1 x311 >= 9;
-1 x221 -1 x226 -1 x231 -1 x236 -1 x241 -1 x246 -1 x251 -1 x256 -1 x261 -1 x266 -1 x271 -1 x276 -1 x281 -1 x286 -1 x291 -1 x296 -1 x301 -1 x306 -1 x311 >= -10;
+1 x222 +1 x227 +1 x232 +1 x237 +1 x242 +1 x247 +1 x252 +1 x257 +1 x262 +1 x267 +1 x272 +1 x277 +1 x282 +1 x287 +1 x292 +1 x297 +1 x302 +1 x307 +1 x312 >= 9;
-1 x222 -1 x227 -1 x232 -1 x237 -1 x242 -1 x247 -1 x252 -1 x257 -1 x262 -1 x267 -1 x272 -1 x277 -1 x282 -1 x287 -1 x292 -1 x297 -1 x302 -1 x307 -1 x312 >= -10;
+1 x223 +1 x228 +1 x233 +1 x238 +1 x243 +1 x248 +1 x253 +1 x258 +1 x263 +1 x268 +1 x273 +1 x278 +1 x283 +1 x288 +1 x293 +1 x298 +1 x303 +1 x308 +1 x313 >= 9;
-1 x223 -1 x228 -1 x233 -1 x238 -1 x243 -1 x248 -1 x253 -1 x258 -1 x263 -1 x268 -1 x273 -1 x278 -1 x283 -1 x288 -1 x293 -1 x298 -1 x303 -1 x308 -1 x313 >= -10;
+1 x224 +1 x229 +1 x234 +1 x239 +1 x244 +1 x249 +1 x254 +1 x259 +1 x264 +1 x269 +1 x274 +1 x279 +1 x284 +1 x289 +1 x294 +1 x299 +1 x304 +1 x309 +1 x314 >= 9;
-1 x224 -1 x229 -1 x234 -1 x239 -1 x244 -1 x249 -1 x254 -1 x259 -1 x264 -1 x269 -1 x274 -1 x279 -1 x284 -1 x289 -1 x294 -1 x299 -1 x304 -1 x309 -1 x314 >= -10;
+1 x225 +1 x230 +1 x235 +1 x240 +1 x245 +1 x250 +1 x255 +1 x260 +1 x265 +1 x270 +1 x275 +1 x280 +1 x285 +1 x290 +1 x295 +1 x300 +1 x305 +1 x310 +1 x315 >= 9;
-1 x225 -1 x230 -1 x235 -1 x240 -1 x245 -1 x250 -1 x255 -1 x260 -1 x265 -1 x270 -1 x275 -1 x280 -1 x285 -1 x290 -1 x295 -1 x300 -1 x305 -1 x310 -1 x315 >= -10;
+1 x226 +1 x231 +1 x236 +1 x241 +1 x246 +1 x251 +1 x256 +1 x261 +1 x266 +1 x271 +1 x276 +1 x281 +1 x286 +1 x291 +1 x296 +1 x301 +1 x306 +1 x311 +1 x316 >= 9;
-1 x226 -1 x231 -1 x236 -1 x241 -1 x246 -1 x251 -1 x256 -1 x261 -1 x266 -1 x271 -1 x276 -1 x281 -1 x286 -1 x291 -1 x296 -1 x301 -1 x306 -1 x311 -1 x316 >= -10;
+1 x227 +1 x232 +1 x237 +1 x242 +1 x247 +1 x252 +1 x257 +1 x262 +1 x267 +1 x272 +1 x277 +1 x282 +1 x287 +1 x292 +1 x297 +1 x302 +1 x307 +1 x312 +1 x317 >= 9;
-1 x227 -1 x232 -1 x237 -1 x242 -1 x247 -1 x252 -1 x257 -1 x262 -1 x267 -1 x272 -1 x277 -1 x282 -1 x287 -1 x292 -1 x297 -1 x302 -1 x307 -1 x312 -1 x317 >= -10;
+1 x228 +1 x233 +1 x238 +1 x243 +1 x248 +1 x253 +1 x258 +1 x263 +1 x268 +1 x273 +1 x278 +1 x283 +1 x288 +1 x293 +1 x298 +1 x303 +1 x308 +1 x313 +1 x318 >= 9;
-1 x228 -1 x233 -1 x238 -1 x243 -1 x248 -1 x253 -1 x258 -1 x263 -1 x268 -1 x273 -1 x278 -1 x283 -1 x288 -1 x293 -1 x298 -1 x303 -1 x308 -1 x313 -1 x318 >= -10;
+1 x229 +1 x234 +1 x239 +1 x244 +1 x249 +1 x254 +1 x259 +1 x264 +1 x269 +1 x274 +1 x279 +1 x284 +1 x289 +1 x294 +1 x299 +1 x304 +1 x309 +1 x314 +1 x319 >= 9;
-1 x229 -1 x234 -1 x239 -1 x244 -1 x249 -1 x254 -1 x259 -1 x264 -1 x269 -1 x274 -1 x279 -1 x284 -1 x289 -1 x294 -1 x299 -1 x304 -1 x309 -1 x314 -1 x319 >= -10;
+1 x230 +1 x235 +1 x240 +1 x245 +1 x250 +1 x255 +1 x260 +1 x265 +1 x270 +1 x275 +1 x280 +1 x285 +1 x290 +1 x295 +1 x300 +1 x305 +1 x310 +1 x315 +1 x320 >= 9;
-1 x230 -1 x235 -1 x240 -1 x245 -1 x250 -1 x255 -1 x260 -1 x265 -1 x270 -1 x275 -1 x280 -1 x285 -1 x290 -1 x295 -1 x300 -1 x305 -1 x310 -1 x315 -1 x320 >= -10;
+1 x231 +1 x236 +1 x241 +1 x246 +1 x251 +1 x256 +1 x261 +1 x266 +1 x271 +1 x276 +1 x281 +1 x286 +1 x291 +1 x296 +1 x301 +1 x306 +1 x311 +1 x316 +1 x321 >= 9;
-1 x231 -1 x236 -1 x241 -1 x246 -1 x251 -1 x256 -1 x261 -1 x266 -1 x271 -1 x276 -1 x281 -1 x286 -1 x291 -1 x296 -1 x301 -1 x306 -1 x311 -1 x316 -1 x321 >= -10;
+1 x232 +1 x237 +1 x242 +1 x247 +1 x252 +1 x257 +1 x262 +1 x267 +1 x272 +1 x277 +1 x282 +1 x287 +1 x292 +1 x297 +1 x302 +1 x307 +1 x312 +1 x317 +1 x322 >= 9;
-1 x232 -1 x237 -1 x242 -1 x247 -1 x252 -1 x257 -1 x262 -1 x267 -1 x272 -1 x277 -1 x282 -1 x287 -1 x292 -1 x297 -1 x302 -1 x307 -1 x312 -1 x317 -1 x322 >= -10;
+1 x233 +1 x238 +1 x243 +1 x248 +1 x253 +1 x258 +1 x263 +1 x268 +1 x273 +1 x278 +1 x283 +1 x288 +1 x293 +1 x298 +1 x303 +1 x308 +1 x313 +1 x318 +1 x323 >= 9;
-1 x233 -1 x238 -1 x243 -1 x248 -1 x253 -1 x258 -1 x263 -1 x268 -1 x273 -1 x278 -1 x283 -1 x288 -1 x293 -1 x298 -1 x303 -1 x308 -1 x313 -1 x318 -1 x323 >= -10;
+1 x234 +1 x239 +1 x244 +1 x249 +1 x254 +1 x259 +1 x264 +1 x269 +1 x274 +1 x279 +1 x284 +1 x289 +1 x294 +1 x299 +1 x304 +1 x309 +1 x314 +1 x319 +1 x324 >= 9;
-1 x234 -1 x239 -1 x244 -1 x249 -1 x254 -1 x259 -1 x264 -1 x269 -1 x274 -1 x279 -1 x284 -1 x289 -1 x294 -1 x299 -1 x304 -1 x309 -1 x314 -1 x319 -1 x324 >= -10;
+1 x235 +1 x240 +1 x245 +1 x250 +1 x255 +1 x260 +1 x265 +1 x270 +1 x275 +1 x280 +1 x285 +1 x290 +1 x295 +1 x300 +1 x305 +1 x310 +1 x315 +1 x320 +1 x325 >= 9;
-1 x235 -1 x240 -1 x245 -1 x250 -1 x255 -1 x260 -1 x265 -1 x270 -1 x275 -1 x280 -1 x285 -1 x290 -1 x295 -1 x300 -1 x305 -1 x310 -1 x315 -1 x320 -1 x325 >= -10;
+1 x236 +1 x241 +1 x246 +1 x251 +1 x256 +1 x261 +1 x266 +1 x271 +1 x276 +1 x281 +1 x286 +1 x291 +1 x296 +1 x301 +1 x306 +1 x311 +1 x316 +1 x321 +1 x326 >= 9;
-1 x236 -1 x241 -1 x246 -1 x251 -1 x256 -1 x261 -1 x266 -1 x271 -1 x276 -1 x281 -1 x286 -1 x291 -1 x296 -1 x301 -1 x306 -1 x311 -1 x316 -1 x321 -1 x326 >= -10;
+1 x237 +1 x242 +1 x247 +1 x252 +1 x257 +1 x262 +1 x267 +1 x272 +1 x277 +1 x282 +1 x287 +1 x292 +1 x297 +1 x302 +1 x307 +1 x312 +1 x317 +1 x322 +1 x327 >= 9;
-1 x237 -1 x242 -1 x247 -1 x252 -1 x257 -1 x262 -1 x267 -1 x272 -1 x277 -1 x282 -1 x287 -1 x292 -1 x297 -1 x302 -1 x307 -1 x312 -1 x317 -1 x322 -1 x327 >= -10;
+1 x238 +1 x243 +1 x248 +1 x253 +1 x258 +1 x263 +1 x268 +1 x273 +1 x278 +1 x283 +1 x288 +1 x293 +1 x298 +1 x303 +1 x308 +1 x313 +1 x318 +1 x323 +1 x328 >= 9;
-1 x238 -1 x243 -1 x248 -1 x253 -1 x258 -1 x263 -1 x268 -1 x273 -1 x278 -1 x283 -1 x288 -1 x293 -1 x298 -1 x303 -1 x308 -1 x313 -1 x318 -1 x323 -1 x328 >= -10;
+1 x239 +1 x244 +1 x249 +1 x254 +1 x259 +1 x264 +1 x269 +1 x274 +1 x279 +1 x284 +1 x289 +1 x294 +1 x299 +1 x304 +1 x309 +1 x314 +1 x319 +1 x324 +1 x329 >= 9;
-1 x239 -1 x244 -1 x249 -1 x254 -1 x259 -1 x264 -1 x269 -1 x274 -1 x279 -1 x284 -1 x289 -1 x294 -1 x299 -1 x304 -1 x309 -1 x314 -1 x319 -1 x324 -1 x329 >= -10;
+1 x240 +1 x245 +1 x250 +1 x255 +1 x260 +1 x265 +1 x270 +1 x275 +1 x280 +1 x285 +1 x290 +1 x295 +1 x300 +1 x305 +1 x310 +1 x315 +1 x320 +1 x325 +1 x330 >= 9;
-1 x240 -1 x245 -1 x250 -1 x255 -1 x260 -1 x265 -1 x270 -1 x275 -1 x280 -1 x285 -1 x290 -1 x295 -1 x300 -1 x305 -1 x310 -1 x315 -1 x320 -1 x325 -1 x330 >= -10;
+1 x241 +1 x246 +1 x251 +1 x256 +1 x261 +1 x266 +1 x271 +1 x276 +1 x281 +1 x286 +1 x291 +1 x296 +1 x301 +1 x306 +1 x311 +1 x316 +1 x321 +1 x326 +1 x331 >= 9;
-1 x241 -1 x246 -1 x251 -1 x256 -1 x261 -1 x266 -1 x271 -1 x276 -1 x281 -1 x286 -1 x291 -1 x296 -1 x301 -1 x306 -1 x311 -1 x316 -1 x321 -1 x326 -1 x331 >= -10;
+1 x242 +1 x247 +1 x252 +1 x257 +1 x262 +1 x267 +1 x272 +1 x277 +1 x282 +1 x287 +1 x292 +1 x297 +1 x302 +1 x307 +1 x312 +1 x317 +1 x322 +1 x327 +1 x332 >= 9;
-1 x242 -1 x247 -1 x252 -1 x257 -1 x262 -1 x267 -1 x272 -1 x277 -1 x282 -1 x287 -1 x292 -1 x297 -1 x302 -1 x307 -1 x312 -1 x317 -1 x322 -1 x327 -1 x332 >= -10;
+1 x243 +1 x248 +1 x253 +1 x258 +1 x263 +1 x268 +1 x273 +1 x278 +1 x283 +1 x288 +1 x293 +1 x298 +1 x303 +1 x308 +1 x313 +1 x318 +1 x323 +1 x328 +1 x333 >= 9;
-1 x243 -1 x248 -1 x253 -1 x258 -1 x263 -1 x268 -1 x273 -1 x278 -1 x283 -1 x288 -1 x293 -1 x298 -1 x303 -1 x308 -1 x313 -1 x318 -1 x323 -1 x328 -1 x333 >= -10;
+1 x244 +1 x249 +1 x254 +1 x259 +1 x264 +1 x269 +1 x274 +1 x279 +1 x284 +1 x289 +1 x294 +1 x299 +1 x304 +1 x309 +1 x314 +1 x319 +1 x324 +1 x329 +1 x334 >= 9;
-1 x244 -1 x249 -1 x254 -1 x259 -1 x264 -1 x269 -1 x274 -1 x279 -1 x284 -1 x289 -1 x294 -1 x299 -1 x304 -1 x309 -1 x314 -1 x319 -1 x324 -1 x329 -1 x334 >= -10;
+1 x245 +1 x250 +1 x255 +1 x260 +1 x265 +1 x270 +1 x275 +1 x280 +1 x285 +1 x290 +1 x295 +1 x300 +1 x305 +1 x310 +1 x315 +1 x320 +1 x325 +1 x330 +1 x335 >= 9;
-1 x245 -1 x250 -1 x255 -1 x260 -1 x265 -1 x270 -1 x275 -1 x280 -1 x285 -1 x290 -1 x295 -1 x300 -1 x305 -1 x310 -1 x315 -1 x320 -1 x325 -1 x330 -1 x335 >= -10;
+1 x246 +1 x251 +1 x256 +1 x261 +1 x266 +1 x271 +1 x276 +1 x281 +1 x286 +1 x291 +1 x296 +1 x301 +1 x306 +1 x311 +1 x316 +1 x321 +1 x326 +1 x331 +1 x336 >= 9;
-1 x246 -1 x251 -1 x256 -1 x261 -1 x266 -1 x271 -1 x276 -1 x281 -1 x286 -1 x291 -1 x296 -1 x301 -1 x306 -1 x311 -1 x316 -1 x321 -1 x326 -1 x331 -1 x336 >= -10;
+1 x247 +1 x252 +1 x257 +1 x262 +1 x267 +1 x272 +1 x277 +1 x282 +1 x287 +1 x292 +1 x297 +1 x302 +1 x307 +1 x312 +1 x317 +1 x322 +1 x327 +1 x332 +1 x337 >= 9;
-1 x247 -1 x252 -1 x257 -1 x262 -1 x267 -1 x272 -1 x277 -1 x282 -1 x287 -1 x292 -1 x297 -1 x302 -1 x307 -1 x312 -1 x317 -1 x322 -1 x327 -1 x332 -1 x337 >= -10;
+1 x248 +1 x253 +1 x258 +1 x263 +1 x268 +1 x273 +1 x278 +1 x283 +1 x288 +1 x293 +1 x298 +1 x303 +1 x308 +1 x313 +1 x318 +1 x323 +1 x328 +1 x333 +1 x338 >= 9;
-1 x248 -1 x253 -1 x258 -1 x263 -1 x268 -1 x273 -1 x278 -1 x283 -1 x288 -1 x293 -1 x298 -1 x303 -1 x308 -1 x313 -1 x318 -1 x323 -1 x328 -1 x333 -1 x338 >= -10;
+1 x249 +1 x254 +1 x259 +1 x264 +1 x269 +1 x274 +1 x279 +1 x284 +1 x289 +1 x294 +1 x299 +1 x304 +1 x309 +1 x314 +1 x319 +1 x324 +1 x329 +1 x334 +1 x339 >= 9;
-1 x249 -1 x254 -1 x259 -1 x264 -1 x269 -1 x274 -1 x279 -1 x284 -1 x289 -1 x294 -1 x299 -1 x304 -1 x309 -1 x314 -1 x319 -1 x324 -1 x329 -1 x334 -1 x339 >= -10;
+1 x250 +1 x255 +1 x260 +1 x265 +1 x270 +1 x275 +1 x280 +1 x285 +1 x290 +1 x295 +1 x300 +1 x305 +1 x310 +1 x315 +1 x320 +1 x325 +1 x330 +1 x335 +1 x340 >= 9;
-1 x250 -1 x255 -1 x260 -1 x265 -1 x270 -1 x275 -1 x280 -1 x285 -1 x290 -1 x295 -1 x300 -1 x305 -1 x310 -1 x315 -1 x320 -1 x325 -1 x330 -1 x335 -1 x340 >= -10;
+1 x251 +1 x256 +1 x261 +1 x266 +1 x271 +1 x276 +1 x281 +1 x286 +1 x291 +1 x296 +1 x301 +1 x306 +1 x311 +1 x316 +1 x321 +1 x326 +1 x331 +1 x336 +1 x341 >= 9;
-1 x251 -1 x256 -1 x261 -1 x266 -1 x271 -1 x276 -1 x281 -1 x286 -1 x291 -1 x296 -1 x301 -1 x306 -1 x311 -1 x316 -1 x321 -1 x326 -1 x331 -1 x336 -1 x341 >= -10;
+1 x252 +1 x257 +1 x262 +1 x267 +1 x272 +1 x277 +1 x282 +1 x287 +1 x292 +1 x297 +1 x302 +1 x307 +1 x312 +1 x317 +1 x322 +1 x327 +1 x332 +1 x337 +1 x342 >= 9;
-1 x252 -1 x257 -1 x262 -1 x267 -1 x272 -1 x277 -1 x282 -1 x287 -1 x292 -1 x297 -1 x302 -1 x307 -1 x312 -1 x317 -1 x322 -1 x327 -1 x332 -1 x337 -1 x342 >= -10;
+1 x253 +1 x258 +1 x263 +1 x268 +1 x273 +1 x278 +1 x283 +1 x288 +1 x293 +1 x298 +1 x303 +1 x308 +1 x313 +1 x318 +1 x323 +1 x328 +1 x333 +1 x338 +1 x343 >= 9;
-1 x253 -1 x258 -1 x263 -1 x268 -1 x273 -1 x278 -1 x283 -1 x288 -1 x293 -1 x298 -1 x303 -1 x308 -1 x313 -1 x318 -1 x323 -1 x328 -1 x333 -1 x338 -1 x343 >= -10;
+1 x254 +1 x259 +1 x264 +1 x269 +1 x274 +1 x279 +1 x284 +1 x289 +1 x294 +1 x299 +1 x304 +1 x309 +1 x314 +1 x319 +1 x324 +1 x329 +1 x334 +1 x339 +1 x344 >= 9;
-1 x254 -1 x259 -1 x264 -1 x269 -1 x274 -1 x279 -1 x284 -1 x289 -1 x294 -1 x299 -1 x304 -1 x309 -1 x314 -1 x319 -1 x324 -1 x329 -1 x334 -1 x339 -1 x344 >= -10;
+1 x1 +1 x7 +1 x13 +1 x19 +1 x25 +1 x31 +1 x37 +1 x43 +1 x49 +1 x55 +1 x61 +1 x67 +1 x73 +1 x79 +1 x85 +1 x91 +1 x97 +1 x103 +1 x109 >= 9;
-1 x1 -1 x7 -1 x13 -1 x19 -1 x25 -1 x31 -1 x37 -1 x43 -1 x49 -1 x55 -1 x61 -1 x67 -1 x73 -1 x79 -1 x85 -1 x91 -1 x97 -1 x103 -1 x109 >= -10;
+1 x2 +1 x8 +1 x14 +1 x20 +1 x26 +1 x32 +1 x38 +1 x44 +1 x50 +1 x56 +1 x62 +1 x68 +1 x74 +1 x80 +1 x86 +1 x92 +1 x98 +1 x104 +1 x110 >= 9;
-1 x2 -1 x8 -1 x14 -1 x20 -1 x26 -1 x32 -1 x38 -1 x44 -1 x50 -1 x56 -1 x62 -1 x68 -1 x74 -1 x80 -1 x86 -1 x92 -1 x98 -1 x104 -1 x110 >= -10;
+1 x3 +1 x9 +1 x15 +1 x21 +1 x27 +1 x33 +1 x39 +1 x45 +1 x51 +1 x57 +1 x63 +1 x69 +1 x75 +1 x81 +1 x87 +1 x93 +1 x99 +1 x105 +1 x111 >= 9;
-1 x3 -1 x9 -1 x15 -1 x21 -1 x27 -1 x33 -1 x39 -1 x45 -1 x51 -1 x57 -1 x63 -1 x69 -1 x75 -1 x81 -1 x87 -1 x93 -1 x99 -1 x105 -1 x111 >= -10;
+1 x4 +1 x10 +1 x16 +1 x22 +1 x28 +1 x34 +1 x40 +1 x46 +1 x52 +1 x58 +1 x64 +1 x70 +1 x76 +1 x82 +1 x88 +1 x94 +1 x100 +1 x106 +1 x112 >= 9;
-1 x4 -1 x10 -1 x16 -1 x22 -1 x28 -1 x34 -1 x40 -1 x46 -1 x52 -1 x58 -1 x64 -1 x70 -1 x76 -1 x82 -1 x88 -1 x94 -1 x100 -1 x106 -1 x112 >= -10;
+1 x5 +1 x11 +1 x17 +1 x23 +1 x29 +1 x35 +1 x41 +1 x47 +1 x53 +1 x59 +1 x65 +1 x71 +1 x77 +1 x83 +1 x89 +1 x95 +1 x101 +1 x107 +1 x113 >= 9;
-1 x5 -1 x11 -1 x17 -1 x23 -1 x29 -1 x35 -1 x41 -1 x47 -1 x53 -1 x59 -1 x65 -1 x71 -1 x77 -1 x83 -1 x89 -1 x95 -1 x101 -1 x107 -1 x113 >= -10;
+1 x6 +1 x12 +1 x18 +1 x24 +1 x30 +1 x36 +1 x42 +1 x48 +1 x54 +1 x60 +1 x66 +1 x72 +1 x78 +1 x84 +1 x90 +1 x96 +1 x102 +1 x108 +1 x114 >= 9;
-1 x6 -1 x12 -1 x18 -1 x24 -1 x30 -1 x36 -1 x42 -1 x48 -1 x54 -1 x60 -1 x66 -1 x72 -1 x78 -1 x84 -1 x90 -1 x96 -1 x102 -1 x108 -1 x114 >= -10;
+1 x7 +1 x13 +1 x19 +1 x25 +1 x31 +1 x37 +1 x43 +1 x49 +1 x55 +1 x61 +1 x67 +1 x73 +1 x79 +1 x85 +1 x91 +1 x97 +1 x103 +1 x109 +1 x115 >= 9;
-1 x7 -1 x13 -1 x19 -1 x25 -1 x31 -1 x37 -1 x43 -1 x49 -1 x55 -1 x61 -1 x67 -1 x73 -1 x79 -1 x85 -1 x91 -1 x97 -1 x103 -1 x109 -1 x115 >= -10;
+1 x8 +1 x14 +1 x20 +1 x26 +1 x32 +1 x38 +1 x44 +1 x50 +1 x56 +1 x62 +1 x68 +1 x74 +1 x80 +1 x86 +1 x92 +1 x98 +1 x104 +1 x110 +1 x116 >= 9;
-1 x8 -1 x14 -1 x20 -1 x26 -1 x32 -1 x38 -1 x44 -1 x50 -1 x56 -1 x62 -1 x68 -1 x74 -1 x80 -1 x86 -1 x92 -1 x98 -1 x104 -1 x110 -1 x116 >= -10;
+1 x9 +1 x15 +1 x21 +1 x27 +1 x33 +1 x39 +1 x45 +1 x51 +1 x57 +1 x63 +1 x69 +1 x75 +1 x81 +1 x87 +1 x93 +1 x99 +1 x105 +1 x111 +1 x117 >= 9;
-1 x9 -1 x15 -1 x21 -1 x27 -1 x33 -1 x39 -1 x45 -1 x51 -1 x57 -1 x63 -1 x69 -1 x75 -1 x81 -1 x87 -1 x93 -1 x99 -1 x105 -1 x111 -1 x117 >= -10;
+1 x10 +1 x16 +1 x22 +1 x28 +1 x34 +1 x40 +1 x46 +1 x52 +1 x58 +1 x64 +1 x70 +1 x76 +1 x82 +1 x88 +1 x94 +1 x100 +1 x106 +1 x112 +1 x118 >= 9;
-1 x10 -1 x16 -1 x22 -1 x28 -1 x34 -1 x40 -1 x46 -1 x52 -1 x58 -1 x64 -1 x70 -1 x76 -1 x82 -1 x88 -1 x94 -1 x100 -1 x106 -1 x112 -1 x118 >= -10;
+1 x11 +1 x17 +1 x23 +1 x29 +1 x35 +1 x41 +1 x47 +1 x53 +1 x59 +1 x65 +1 x71 +1 x77 +1 x83 +1 x89 +1 x95 +1 x101 +1 x107 +1 x113 +1 x119 >= 9;
-1 x11 -1 x17 -1 x23 -1 x29 -1 x35 -1 x41 -1 x47 -1 x53 -1 x59 -1 x65 -1 x71 -1 x77 -1 x83 -1 x89 -1 x95 -1 x101 -1 x107 -1 x113 -1 x119 >= -10;
+1 x12 +1 x18 +1 x24 +1 x30 +1 x36 +1 x42 +1 x48 +1 x54 +1 x60 +1 x66 +1 x72 +1 x78 +1 x84 +1 x90 +1 x96 +1 x102 +1 x108 +1 x114 +1 x120 >= 9;
-1 x12 -1 x18 -1 x24 -1 x30 -1 x36 -1 x42 -1 x48 -1 x54 -1 x60 -1 x66 -1 x72 -1 x78 -1 x84 -1 x90 -1 x96 -1 x102 -1 x108 -1 x114 -1 x120 >= -10;
+1 x13 +1 x19 +1 x25 +1 x31 +1 x37 +1 x43 +1 x49 +1 x55 +1 x61 +1 x67 +1 x73 +1 x79 +1 x85 +1 x91 +1 x97 +1 x103 +1 x109 +1 x115 +1 x121 >= 9;
-1 x13 -1 x19 -1 x25 -1 x31 -1 x37 -1 x43 -1 x49 -1 x55 -1 x61 -1 x67 -1 x73 -1 x79 -1 x85 -1 x91 -1 x97 -1 x103 -1 x109 -1 x115 -1 x121 >= -10;
+1 x14 +1 x20 +1 x26 +1 x32 +1 x38 +1 x44 +1 x50 +1 x56 +1 x62 +1 x68 +1 x74 +1 x80 +1 x86 +1 x92 +1 x98 +1 x104 +1 x110 +1 x116 +1 x122 >= 9;
-1 x14 -1 x20 -1 x26 -1 x32 -1 x38 -1 x44 -1 x50 -1 x56 -1 x62 -1 x68 -1 x74 -1 x80 -1 x86 -1 x92 -1 x98 -1 x104 -1 x110 -1 x116 -1 x122 >= -10;
+1 x15 +1 x21 +1 x27 +1 x33 +1 x39 +1 x45 +1 x51 +1 x57 +1 x63 +1 x69 +1 x75 +1 x81 +1 x87 +1 x93 +1 x99 +1 x105 +1 x111 +1 x117 +1 x123 >= 9;
-1 x15 -1 x21 -1 x27 -1 x33 -1 x39 -1 x45 -1 x51 -1 x57 -1 x63 -1 x69 -1 x75 -1 x81 -1 x87 -1 x93 -1 x99 -1 x105 -1 x111 -1 x117 -1 x123 >= -10;
+1 x16 +1 x22 +1 x28 +1 x34 +1 x40 +1 x46 +1 x52 +1 x58 +1 x64 +1 x70 +1 x76 +1 x82 +1 x88 +1 x94 +1 x100 +1 x106 +1 x112 +1 x118 +1 x124 >= 9;
-1 x16 -1 x22 -1 x28 -1 x34 -1 x40 -1 x46 -1 x52 -1 x58 -1 x64 -1 x70 -1 x76 -1 x82 -1 x88 -1 x94 -1 x100 -1 x106 -1 x112 -1 x118 -1 x124 >= -10;
+1 x17 +1 x23 +1 x29 +1 x35 +1 x41 +1 x47 +1 x53 +1 x59 +1 x65 +1 x71 +1 x77 +1 x83 +1 x89 +1 x95 +1 x101 +1 x107 +1 x113 +1 x119 +1 x125 >= 9;
-1 x17 -1 x23 -1 x29 -1 x35 -1 x41 -1 x47 -1 x53 -1 x59 -1 x65 -1 x71 -1 x77 -1 x83 -1 x89 -1 x95 -1 x101 -1 x107 -1 x113 -1 x119 -1 x125 >= -10;
+1 x18 +1 x24 +1 x30 +1 x36 +1 x42 +1 x48 +1 x54 +1 x60 +1 x66 +1 x72 +1 x78 +1 x84 +1 x90 +1 x96 +1 x102 +1 x108 +1 x114 +1 x120 +1 x126 >= 9;
-1 x18 -1 x24 -1 x30 -1 x36 -1 x42 -1 x48 -1 x54 -1 x60 -1 x66 -1 x72 -1 x78 -1 x84 -1 x90 -1 x96 -1 x102 -1 x108 -1 x114 -1 x120 -1 x126 >= -10;
+1 x19 +1 x25 +1 x31 +1 x37 +1 x43 +1 x49 +1 x55 +1 x61 +1 x67 +1 x73 +1 x79 +1 x85 +1 x91 +1 x97 +1 x103 +1 x109 +1 x115 +1 x121 +1 x127 >= 9;
-1 x19 -1 x25 -1 x31 -1 x37 -1 x43 -1 x49 -1 x55 -1 x61 -1 x67 -1 x73 -1 x79 -1 x85 -1 x91 -1 x97 -1 x103 -1 x109 -1 x115 -1 x121 -1 x127 >= -10;
+1 x20 +1 x26 +1 x32 +1 x38 +1 x44 +1 x50 +1 x56 +1 x62 +1 x68 +1 x74 +1 x80 +1 x86 +1 x92 +1 x98 +1 x104 +1 x110 +1 x116 +1 x122 +1 x128 >= 9;
-1 x20 -1 x26 -1 x32 -1 x38 -1 x44 -1 x50 -1 x56 -1 x62 -1 x68 -1 x74 -1 x80 -1 x86 -1 x92 -1 x98 -1 x104 -1 x110 -1 x116 -1 x122 -1 x128 >= -10;
+1 x21 +1 x27 +1 x33 +1 x39 +1 x45 +1 x51 +1 x57 +1 x63 +1 x69 +1 x75 +1 x81 +1 x87 +1 x93 +1 x99 +1 x105 +1 x111 +1 x117 +1 x123 +1 x129 >= 9;
-1 x21 -1 x27 -1 x33 -1 x39 -1 x45 -1 x51 -1 x57 -1 x63 -1 x69 -1 x75 -1 x81 -1 x87 -1 x93 -1 x99 -1 x105 -1 x111 -1 x117 -1 x123 -1 x129 >= -10;
+1 x22 +1 x28 +1 x34 +1 x40 +1 x46 +1 x52 +1 x58 +1 x64 +1 x70 +1 x76 +1 x82 +1 x88 +1 x94 +1 x100 +1 x106 +1 x112 +1 x118 +1 x124 +1 x130 >= 9;
-1 x22 -1 x28 -1 x34 -1 x40 -1 x46 -1 x52 -1 x58 -1 x64 -1 x70 -1 x76 -1 x82 -1 x88 -1 x94 -1 x100 -1 x106 -1 x112 -1 x118 -1 x124 -1 x130 >= -10;
+1 x23 +1 x29 +1 x35 +1 x41 +1 x47 +1 x53 +1 x59 +1 x65 +1 x71 +1 x77 +1 x83 +1 x89 +1 x95 +1 x101 +1 x107 +1 x113 +1 x119 +1 x125 +1 x131 >= 9;
-1 x23 -1 x29 -1 x35 -1 x41 -1 x47 -1 x53 -1 x59 -1 x65 -1 x71 -1 x77 -1 x83 -1 x89 -1 x95 -1 x101 -1 x107 -1 x113 -1 x119 -1 x125 -1 x131 >= -10;
+1 x24 +1 x30 +1 x36 +1 x42 +1 x48 +1 x54 +1 x60 +1 x66 +1 x72 +1 x78 +1 x84 +1 x90 +1 x96 +1 x102 +1 x108 +1 x114 +1 x120 +1 x126 +1 x132 >= 9;
-1 x24 -1 x30 -1 x36 -1 x42 -1 x48 -1 x54 -1 x60 -1 x66 -1 x72 -1 x78 -1 x84 -1 x90 -1 x96 -1 x102 -1 x108 -1 x114 -1 x120 -1 x126 -1 x132 >= -10;
+1 x25 +1 x31 +1 x37 +1 x43 +1 x49 +1 x55 +1 x61 +1 x67 +1 x73 +1 x79 +1 x85 +1 x91 +1 x97 +1 x103 +1 x109 +1 x115 +1 x121 +1 x127 +1 x133 >= 9;
-1 x25 -1 x31 -1 x37 -1 x43 -1 x49 -1 x55 -1 x61 -1 x67 -1 x73 -1 x79 -1 x85 -1 x91 -1 x97 -1 x103 -1 x109 -1 x115 -1 x121 -1 x127 -1 x133 >= -10;
+1 x26 +1 x32 +1 x38 +1 x44 +1 x50 +1 x56 +1 x62 +1 x68 +1 x74 +1 x80 +1 x86 +1 x92 +1 x98 +1 x104 +1 x110 +1 x116 +1 x122 +1 x128 +1 x134 >= 9;
-1 x26 -1 x32 -1 x38 -1 x44 -1 x50 -1 x56 -1 x62 -1 x68 -1 x74 -1 x80 -1 x86 -1 x92 -1 x98 -1 x104 -1 x110 -1 x116 -1 x122 -1 x128 -1 x134 >= -10;
+1 x27 +1 x33 +1 x39 +1 x45 +1 x51 +1 x57 +1 x63 +1 x69 +1 x75 +1 x81 +1 x87 +1 x93 +1 x99 +1 x105 +1 x111 +1 x117 +1 x123 +1 x129 +1 x135 >= 9;
-1 x27 -1 x33 -1 x39 -1 x45 -1 x51 -1 x57 -1 x63 -1 x69 -1 x75 -1 x81 -1 x87 -1 x93 -1 x99 -1 x105 -1 x111 -1 x117 -1 x123 -1 x129 -1 x135 >= -10;
+1 x28 +1 x34 +1 x40 +1 x46 +1 x52 +1 x58 +1 x64 +1 x70 +1 x76 +1 x82 +1 x88 +1 x94 +1 x100 +1 x106 +1 x112 +1 x118 +1 x124 +1 x130 +1 x136 >= 9;
-1 x28 -1 x34 -1 x40 -1 x46 -1 x52 -1 x58 -1 x64 -1 x70 -1 x76 -1 x82 -1 x88 -1 x94 -1 x100 -1 x106 -1 x112 -1 x118 -1 x124 -1 x130 -1 x136 >= -10;
+1 x29 +1 x35 +1 x41 +1 x47 +1 x53 +1 x59 +1 x65 +1 x71 +1 x77 +1 x83 +1 x89 +1 x95 +1 x101 +1 x107 +1 x113 +1 x119 +1 x125 +1 x131 +1 x137 >= 9;
-1 x29 -1 x35 -1 x41 -1 x47 -1 x53 -1 x59 -1 x65 -1 x71 -1 x77 -1 x83 -1 x89 -1 x95 -1 x101 -1 x107 -1 x113 -1 x119 -1 x125 -1 x131 -1 x137 >= -10;
+1 x30 +1 x36 +1 x42 +1 x48 +1 x54 +1 x60 +1 x66 +1 x72 +1 x78 +1 x84 +1 x90 +1 x96 +1 x102 +1 x108 +1 x114 +1 x120 +1 x126 +1 x132 +1 x138 >= 9;
-1 x30 -1 x36 -1 x42 -1 x48 -1 x54 -1 x60 -1 x66 -1 x72 -1 x78 -1 x84 -1 x90 -1 x96 -1 x102 -1 x108 -1 x114 -1 x120 -1 x126 -1 x132 -1 x138 >= -10;
+1 x31 +1 x37 +1 x43 +1 x49 +1 x55 +1 x61 +1 x67 +1 x73 +1 x79 +1 x85 +1 x91 +1 x97 +1 x103 +1 x109 +1 x115 +1 x121 +1 x127 +1 x133 +1 x139 >= 9;
-1 x31 -1 x37 -1 x43 -1 x49 -1 x55 -1 x61 -1 x67 -1 x73 -1 x79 -1 x85 -1 x91 -1 x97 -1 x103 -1 x109 -1 x115 -1 x121 -1 x127 -1 x133 -1 x139 >= -10;
+1 x32 +1 x38 +1 x44 +1 x50 +1 x56 +1 x62 +1 x68 +1 x74 +1 x80 +1 x86 +1 x92 +1 x98 +1 x104 +1 x110 +1 x116 +1 x122 +1 x128 +1 x134 +1 x140 >= 9;
-1 x32 -1 x38 -1 x44 -1 x50 -1 x56 -1 x62 -1 x68 -1 x74 -1 x80 -1 x86 -1 x92 -1 x98 -1 x104 -1 x110 -1 x116 -1 x122 -1 x128 -1 x134 -1 x140 >= -10;
+1 x33 +1 x39 +1 x45 +1 x51 +1 x57 +1 x63 +1 x69 +1 x75 +1 x81 +1 x87 +1 x93 +1 x99 +1 x105 +1 x111 +1 x117 +1 x123 +1 x129 +1 x135 +1 x141 >= 9;
-1 x33 -1 x39 -1 x45 -1 x51 -1 x57 -1 x63 -1 x69 -1 x75 -1 x81 -1 x87 -1 x93 -1 x99 -1 x105 -1 x111 -1 x117 -1 x123 -1 x129 -1 x135 -1 x141 >= -10;
+1 x34 +1 x40 +1 x46 +1 x52 +1 x58 +1 x64 +1 x70 +1 x76 +1 x82 +1 x88 +1 x94 +1 x100 +1 x106 +1 x112 +1 x118 +1 x124 +1 x130 +1 x136 +1 x142 >= 9;
-1 x34 -1 x40 -1 x46 -1 x52 -1 x58 -1 x64 -1 x70 -1 x76 -1 x82 -1 x88 -1 x94 -1 x100 -1 x106 -1 x112 -1 x118 -1 x124 -1 x130 -1 x136 -1 x142 >= -10;
+1 x35 +1 x41 +1 x47 +1 x53 +1 x59 +1 x65 +1 x71 +1 x77 +1 x83 +1 x89 +1 x95 +1 x101 +1 x107 +1 x113 +1 x119 +1 x125 +1 x131 +1 x137 +1 x143 >= 9;
-1 x35 -1 x41 -1 x47 -1 x53 -1 x59 -1 x65 -1 x71 -1 x77 -1 x83 -1 x89 -1 x95 -1 x101 -1 x107 -1 x113 -1 x119 -1 x125 -1 x131 -1 x137 -1 x143 >= -10;
+1 x36 +1 x42 +1 x48 +1 x54 +1 x60 +1 x66 +1 x72 +1 x78 +1 x84 +1 x90 +1 x96 +1 x102 +1 x108 +1 x114 +1 x120 +1 x126 +1 x132 +1 x138 +1 x144 >= 9;
-1 x36 -1 x42 -1 x48 -1 x54 -1 x60 -1 x66 -1 x72 -1 x78 -1 x84 -1 x90 -1 x96 -1 x102 -1 x108 -1 x114 -1 x120 -1 x126 -1 x132 -1 x138 -1 x144 >= -10;
+1 x37 +1 x43 +1 x49 +1 x55 +1 x61 +1 x67 +1 x73 +1 x79 +1 x85 +1 x91 +1 x97 +1 x103 +1 x109 +1 x115 +1 x121 +1 x127 +1 x133 +1 x139 +1 x145 >= 9;
-1 x37 -1 x43 -1 x49 -1 x55 -1 x61 -1 x67 -1 x73 -1 x79 -1 x85 -1 x91 -1 x97 -1 x103 -1 x109 -1 x115 -1 x121 -1 x127 -1 x133 -1 x139 -1 x145 >= -10;
+1 x38 +1 x44 +1 x50 +1 x56 +1 x62 +1 x68 +1 x74 +1 x80 +1 x86 +1 x92 +1 x98 +1 x104 +1 x110 +1 x116 +1 x122 +1 x128 +1 x134 +1 x140 +1 x146 >= 9;
-1 x38 -1 x44 -1 x50 -1 x56 -1 x62 -1 x68 -1 x74 -1 x80 -1 x86 -1 x92 -1 x98 -1 x104 -1 x110 -1 x116 -1 x122 -1 x128 -1 x134 -1 x140 -1 x146 >= -10;
+1 x39 +1 x45 +1 x51 +1 x57 +1 x63 +1 x69 +1 x75 +1 x81 +1 x87 +1 x93 +1 x99 +1 x105 +1 x111 +1 x117 +1 x123 +1 x129 +1 x135 +1 x141 +1 x147 >= 9;
-1 x39 -1 x45 -1 x51 -1 x57 -1 x63 -1 x69 -1 x75 -1 x81 -1 x87 -1 x93 -1 x99 -1 x105 -1 x111 -1 x117 -1 x123 -1 x129 -1 x135 -1 x141 -1 x147 >= -10;
+1 x40 +1 x46 +1 x52 +1 x58 +1 x64 +1 x70 +1 x76 +1 x82 +1 x88 +1 x94 +1 x100 +1 x106 +1 x112 +1 x118 +1 x124 +1 x130 +1 x136 +1 x142 +1 x148 >= 9;
-1 x40 -1 x46 -1 x52 -1 x58 -1 x64 -1 x70 -1 x76 -1 x82 -1 x88 -1 x94 -1 x100 -1 x106 -1 x112 -1 x118 -1 x124 -1 x130 -1 x136 -1 x142 -1 x148 >= -10;
+1 x41 +1 x47 +1 x53 +1 x59 +1 x65 +1 x71 +1 x77 +1 x83 +1 x89 +1 x95 +1 x101 +1 x107 +1 x113 +1 x119 +1 x125 +1 x131 +1 x137 +1 x143 +1 x149 >= 9;
-1 x41 -1 x47 -1 x53 -1 x59 -1 x65 -1 x71 -1 x77 -1 x83 -1 x89 -1 x95 -1 x101 -1 x107 -1 x113 -1 x119 -1 x125 -1 x131 -1 x137 -1 x143 -1 x149 >= -10;
+1 x42 +1 x48 +1 x54 +1 x60 +1 x66 +1 x72 +1 x78 +1 x84 +1 x90 +1 x96 +1 x102 +1 x108 +1 x114 +1 x120 +1 x126 +1 x132 +1 x138 +1 x144 +1 x150 >= 9;
-1 x42 -1 x48 -1 x54 -1 x60 -1 x66 -1 x72 -1 x78 -1 x84 -1 x90 -1 x96 -1 x102 -1 x108 -1 x114 -1 x120 -1 x126 -1 x132 -1 x138 -1 x144 -1 x150 >= -10;
+1 x43 +1 x49 +1 x55 +1 x61 +1 x67 +1 x73 +1 x79 +1 x85 +1 x91 +1 x97 +1 x103 +1 x109 +1 x115 +1 x121 +1 x127 +1 x133 +1 x139 +1 x145 +1 x151 >= 9;
-1 x43 -1 x49 -1 x55 -1 x61 -1 x67 -1 x73 -1 x79 -1 x85 -1 x91 -1 x97 -1 x103 -1 x109 -1 x115 -1 x121 -1 x127 -1 x133 -1 x139 -1 x145 -1 x151 >= -10;
+1 x44 +1 x50 +1 x56 +1 x62 +1 x68 +1 x74 +1 x80 +1 x86 +1 x92 +1 x98 +1 x104 +1 x110 +1 x116 +1 x122 +1 x128 +1 x134 +1 x140 +1 x146 +1 x152 >= 9;
-1 x44 -1 x50 -1 x56 -1 x62 -1 x68 -1 x74 -1 x80 -1 x86 -1 x92 -1 x98 -1 x104 -1 x110 -1 x116 -1 x122 -1 x128 -1 x134 -1 x140 -1 x146 -1 x152 >= -10;
+1 x45 +1 x51 +1 x57 +1 x63 +1 x69 +1 x75 +1 x81 +1 x87 +1 x93 +1 x99 +1 x105 +1 x111 +1 x117 +1 x123 +1 x129 +1 x135 +1 x141 +1 x147 +1 x153 >= 9;
-1 x45 -1 x51 -1 x57 -1 x63 -1 x69 -1 x75 -1 x81 -1 x87 -1 x93 -1 x99 -1 x105 -1 x111 -1 x117 -1 x123 -1 x129 -1 x135 -1 x141 -1 x147 -1 x153 >= -10;
+1 x46 +1 x52 +1 x58 +1 x64 +1 x70 +1 x76 +1 x82 +1 x88 +1 x94 +1 x100 +1 x106 +1 x112 +1 x118 +1 x124 +1 x130 +1 x136 +1 x142 +1 x148 +1 x154 >= 9;
-1 x46 -1 x52 -1 x58 -1 x64 -1 x70 -1 x76 -1 x82 -1 x88 -1 x94 -1 x100 -1 x106 -1 x112 -1 x118 -1 x124 -1 x130 -1 x136 -1 x142 -1 x148 -1 x154 >= -10;
+1 x47 +1 x53 +1 x59 +1 x65 +1 x71 +1 x77 +1 x83 +1 x89 +1 x95 +1 x101 +1 x107 +1 x113 +1 x119 +1 x125 +1 x131 +1 x137 +1 x143 +1 x149 +1 x155 >= 9;
-1 x47 -1 x53 -1 x59 -1 x65 -1 x71 -1 x77 -1 x83 -1 x89 -1 x95 -1 x101 -1 x107 -1 x113 -1 x119 -1 x125 -1 x131 -1 x137 -1 x143 -1 x149 -1 x155 >= -10;
+1 x48 +1 x54 +1 x60 +1 x66 +1 x72 +1 x78 +1 x84 +1 x90 +1 x96 +1 x102 +1 x108 +1 x114 +1 x120 +1 x126 +1 x132 +1 x138 +1 x144 +1 x150 +1 x156 >= 9;
-1 x48 -1 x54 -1 x60 -1 x66 -1 x72 -1 x78 -1 x84 -1 x90 -1 x96 -1 x102 -1 x108 -1 x114 -1 x120 -1 x126 -1 x132 -1 x138 -1 x144 -1 x150 -1 x156 >= -10;
+1 x49 +1 x55 +1 x61 +1 x67 +1 x73 +1 x79 +1 x85 +1 x91 +1 x97 +1 x103 +1 x109 +1 x115 +1 x121 +1 x127 +1 x133 +1 x139 +1 x145 +1 x151 +1 x157 >= 9;
-1 x49 -1 x55 -1 x61 -1 x67 -1 x73 -1 x79 -1 x85 -1 x91 -1 x97 -1 x103 -1 x109 -1 x115 -1 x121 -1 x127 -1 x133 -1 x139 -1 x145 -1 x151 -1 x157 >= -10;
+1 x50 +1 x56 +1 x62 +1 x68 +1 x74 +1 x80 +1 x86 +1 x92 +1 x98 +1 x104 +1 x110 +1 x116 +1 x122 +1 x128 +1 x134 +1 x140 +1 x146 +1 x152 +1 x158 >= 9;
-1 x50 -1 x56 -1 x62 -1 x68 -1 x74 -1 x80 -1 x86 -1 x92 -1 x98 -1 x104 -1 x110 -1 x116 -1 x122 -1 x128 -1 x134 -1 x140 -1 x146 -1 x152 -1 x158 >= -10;
+1 x51 +1 x57 +1 x63 +1 x69 +1 x75 +1 x81 +1 x87 +1 x93 +1 x99 +1 x105 +1 x111 +1 x117 +1 x123 +1 x129 +1 x135 +1 x141 +1 x147 +1 x153 +1 x159 >= 9;
-1 x51 -1 x57 -1 x63 -1 x69 -1 x75 -1 x81 -1 x87 -1 x93 -1 x99 -1 x105 -1 x111 -1 x117 -1 x123 -1 x129 -1 x135 -1 x141 -1 x147 -1 x153 -1 x159 >= -10;
+1 x52 +1 x58 +1 x64 +1 x70 +1 x76 +1 x82 +1 x88 +1 x94 +1 x100 +1 x106 +1 x112 +1 x118 +1 x124 +1 x130 +1 x136 +1 x142 +1 x148 +1 x154 +1 x160 >= 9;
-1 x52 -1 x58 -1 x64 -1 x70 -1 x76 -1 x82 -1 x88 -1 x94 -1 x100 -1 x106 -1 x112 -1 x118 -1 x124 -1 x130 -1 x136 -1 x142 -1 x148 -1 x154 -1 x160 >= -10;
+1 x53 +1 x59 +1 x65 +1 x71 +1 x77 +1 x83 +1 x89 +1 x95 +1 x101 +1 x107 +1 x113 +1 x119 +1 x125 +1 x131 +1 x137 +1 x143 +1 x149 +1 x155 +1 x161 >= 9;
-1 x53 -1 x59 -1 x65 -1 x71 -1 x77 -1 x83 -1 x89 -1 x95 -1 x101 -1 x107 -1 x113 -1 x119 -1 x125 -1 x131 -1 x137 -1 x143 -1 x149 -1 x155 -1 x161 >= -10;
+1 x54 +1 x60 +1 x66 +1 x72 +1 x78 +1 x84 +1 x90 +1 x96 +1 x102 +1 x108 +1 x114 +1 x120 +1 x126 +1 x132 +1 x138 +1 x144 +1 x150 +1 x156 +1 x162 >= 9;
-1 x54 -1 x60 -1 x66 -1 x72 -1 x78 -1 x84 -1 x90 -1 x96 -1 x102 -1 x108 -1 x114 -1 x120 -1 x126 -1 x132 -1 x138 -1 x144 -1 x150 -1 x156 -1 x162 >= -10;
+1 x55 +1 x61 +1 x67 +1 x73 +1 x79 +1 x85 +1 x91 +1 x97 +1 x103 +1 x109 +1 x115 +1 x121 +1 x127 +1 x133 +1 x139 +1 x145 +1 x151 +1 x157 +1 x163 >= 9;
-1 x55 -1 x61 -1 x67 -1 x73 -1 x79 -1 x85 -1 x91 -1 x97 -1 x103 -1 x109 -1 x115 -1 x121 -1 x127 -1 x133 -1 x139 -1 x145 -1 x151 -1 x157 -1 x163 >= -10;
+1 x56 +1 x62 +1 x68 +1 x74 +1 x80 +1 x86 +1 x92 +1 x98 +1 x104 +1 x110 +1 x116 +1 x122 +1 x128 +1 x134 +1 x140 +1 x146 +1 x152 +1 x158 +1 x164 >= 9;
-1 x56 -1 x62 -1 x68 -1 x74 -1 x80 -1 x86 -1 x92 -1 x98 -1 x104 -1 x110 -1 x116 -1 x122 -1 x128 -1 x134 -1 x140 -1 x146 -1 x152 -1 x158 -1 x164 >= -10;
+1 x57 +1 x63 +1 x69 +1 x75 +1 x81 +1 x87 +1 x93 +1 x99 +1 x105 +1 x111 +1 x117 +1 x123 +1 x129 +1 x135 +1 x141 +1 x147 +1 x153 +1 x159 +1 x165 >= 9;
-1 x57 -1 x63 -1 x69 -1 x75 -1 x81 -1 x87 -1 x93 -1 x99 -1 x105 -1 x111 -1 x117 -1 x123 -1 x129 -1 x135 -1 x141 -1 x147 -1 x153 -1 x159 -1 x165 >= -10;
+1 x58 +1 x64 +1 x70 +1 x76 +1 x82 +1 x88 +1 x94 +1 x100 +1 x106 +1 x112 +1 x118 +1 x124 +1 x130 +1 x136 +1 x142 +1 x148 +1 x154 +1 x160 +1 x166 >= 9;
-1 x58 -1 x64 -1 x70 -1 x76 -1 x82 -1 x88 -1 x94 -1 x100 -1 x106 -1 x112 -1 x118 -1 x124 -1 x130 -1 x136 -1 x142 -1 x148 -1 x154 -1 x160 -1 x166 >= -10;
+1 x59 +1 x65 +1 x71 +1 x77 +1 x83 +1 x89 +1 x95 +1 x101 +1 x107 +1 x113 +1 x119 +1 x125 +1 x131 +1 x137 +1 x143 +1 x149 +1 x155 +1 x161 +1 x167 >= 9;
-1 x59 -1 x65 -1 x71 -1 x77 -1 x83 -1 x89 -1 x95 -1 x101 -1 x107 -1 x113 -1 x119 -1 x125 -1 x131 -1 x137 -1 x143 -1 x149 -1 x155 -1 x161 -1 x167 >= -10;
+1 x60 +1 x66 +1 x72 +1 x78 +1 x84 +1 x90 +1 x96 +1 x102 +1 x108 +1 x114 +1 x120 +1 x126 +1 x132 +1 x138 +1 x144 +1 x150 +1 x156 +1 x162 +1 x168 >= 9;
-1 x60 -1 x66 -1 x72 -1 x78 -1 x84 -1 x90 -1 x96 -1 x102 -1 x108 -1 x114 -1 x120 -1 x126 -1 x132 -1 x138 -1 x144 -1 x150 -1 x156 -1 x162 -1 x168 >= -10;
+1 x61 +1 x67 +1 x73 +1 x79 +1 x85 +1 x91 +1 x97 +1 x103 +1 x109 +1 x115 +1 x121 +1 x127 +1 x133 +1 x139 +1 x145 +1 x151 +1 x157 +1 x163 +1 x169 >= 9;
-1 x61 -1 x67 -1 x73 -1 x79 -1 x85 -1 x91 -1 x97 -1 x103 -1 x109 -1 x115 -1 x121 -1 x127 -1 x133 -1 x139 -1 x145 -1 x151 -1 x157 -1 x163 -1 x169 >= -10;
+1 x62 +1 x68 +1 x74 +1 x80 +1 x86 +1 x92 +1 x98 +1 x104 +1 x110 +1 x116 +1 x122 +1 x128 +1 x134 +1 x140 +1 x146 +1 x152 +1 x158 +1 x164 +1 x170 >= 9;
-1 x62 -1 x68 -1 x74 -1 x80 -1 x86 -1 x92 -1 x98 -1 x104 -1 x110 -1 x116 -1 x122 -1 x128 -1 x134 -1 x140 -1 x146 -1 x152 -1 x158 -1 x164 -1 x170 >= -10;
+1 x63 +1 x69 +1 x75 +1 x81 +1 x87 +1 x93 +1 x99 +1 x105 +1 x111 +1 x117 +1 x123 +1 x129 +1 x135 +1 x141 +1 x147 +1 x153 +1 x159 +1 x165 +1 x171 >= 9;
-1 x63 -1 x69 -1 x75 -1 x81 -1 x87 -1 x93 -1 x99 -1 x105 -1 x111 -1 x117 -1 x123 -1 x129 -1 x135 -1 x141 -1 x147 -1 x153 -1 x159 -1 x165 -1 x171 >= -10;
+1 x64 +1 x70 +1 x76 +1 x82 +1 x88 +1 x94 +1 x100 +1 x106 +1 x112 +1 x118 +1 x124 +1 x130 +1 x136 +1 x142 +1 x148 +1 x154 +1 x160 +1 x166 +1 x172 >= 9;
-1 x64 -1 x70 -1 x76 -1 x82 -1 x88 -1 x94 -1 x100 -1 x106 -1 x112 -1 x118 -1 x124 -1 x130 -1 x136 -1 x142 -1 x148 -1 x154 -1 x160 -1 x166 -1 x172 >= -10;
+1 x65 +1 x71 +1 x77 +1 x83 +1 x89 +1 x95 +1 x101 +1 x107 +1 x113 +1 x119 +1 x125 +1 x131 +1 x137 +1 x143 +1 x149 +1 x155 +1 x161 +1 x167 +1 x173 >= 9;
-1 x65 -1 x71 -1 x77 -1 x83 -1 x89 -1 x95 -1 x101 -1 x107 -1 x113 -1 x119 -1 x125 -1 x131 -1 x137 -1 x143 -1 x149 -1 x155 -1 x161 -1 x167 -1 x173 >= -10;
+1 x66 +1 x72 +1 x78 +1 x84 +1 x90 +1 x96 +1 x102 +1 x108 +1 x114 +1 x120 +1 x126 +1 x132 +1 x138 +1 x144 +1 x150 +1 x156 +1 x162 +1 x168 +1 x174 >= 9;
-1 x66 -1 x72 -1 x78 -1 x84 -1 x90 -1 x96 -1 x102 -1 x108 -1 x114 -1 x120 -1 x126 -1 x132 -1 x138 -1 x144 -1 x150 -1 x156 -1 x162 -1 x168 -1 x174 >= -10;
+1 x67 +1 x73 +1 x79 +1 x85 +1 x91 +1 x97 +1 x103 +1 x109 +1 x115 +1 x121 +1 x127 +1 x133 +1 x139 +1 x145 +1 x151 +1 x157 +1 x163 +1 x169 +1 x175 >= 9;
-1 x67 -1 x73 -1 x79 -1 x85 -1 x91 -1 x97 -1 x103 -1 x109 -1 x115 -1 x121 -1 x127 -1 x133 -1 x139 -1 x145 -1 x151 -1 x157 -1 x163 -1 x169 -1 x175 >= -10;
+1 x68 +1 x74 +1 x80 +1 x86 +1 x92 +1 x98 +1 x104 +1 x110 +1 x116 +1 x122 +1 x128 +1 x134 +1 x140 +1 x146 +1 x152 +1 x158 +1 x164 +1 x170 +1 x176 >= 9;
-1 x68 -1 x74 -1 x80 -1 x86 -1 x92 -1 x98 -1 x104 -1 x110 -1 x116 -1 x122 -1 x128 -1 x134 -1 x140 -1 x146 -1 x152 -1 x158 -1 x164 -1 x170 -1 x176 >= -10;
+1 x69 +1 x75 +1 x81 +1 x87 +1 x93 +1 x99 +1 x105 +1 x111 +1 x117 +1 x123 +1 x129 +1 x135 +1 x141 +1 x147 +1 x153 +1 x159 +1 x165 +1 x171 +1 x177 >= 9;
-1 x69 -1 x75 -1 x81 -1 x87 -1 x93 -1 x99 -1 x105 -1 x111 -1 x117 -1 x123 -1 x129 -1 x135 -1 x141 -1 x147 -1 x153 -1 x159 -1 x165 -1 x171 -1 x177 >= -10;
+1 x70 +1 x76 +1 x82 +1 x88 +1 x94 +1 x100 +1 x106 +1 x112 +1 x118 +1 x124 +1 x130 +1 x136 +1 x142 +1 x148 +1 x154 +1 x160 +1 x166 +1 x172 +1 x178 >= 9;
-1 x70 -1 x76 -1 x82 -1 x88 -1 x94 -1 x100 -1 x106 -1 x112 -1 x118 -1 x124 -1 x130 -1 x136 -1 x142 -1 x148 -1 x154 -1 x160 -1 x166 -1 x172 -1 x178 >= -10;
+1 x71 +1 x77 +1 x83 +1 x89 +1 x95 +1 x101 +1 x107 +1 x113 +1 x119 +1 x125 +1 x131 +1 x137 +1 x143 +1 x149 +1 x155 +1 x161 +1 x167 +1 x173 +1 x179 >= 9;
-1 x71 -1 x77 -1 x83 -1 x89 -1 x95 -1 x101 -1 x107 -1 x113 -1 x119 -1 x125 -1 x131 -1 x137 -1 x143 -1 x149 -1 x155 -1 x161 -1 x167 -1 x173 -1 x179 >= -10;
+1 x72 +1 x78 +1 x84 +1 x90 +1 x96 +1 x102 +1 x108 +1 x114 +1 x120 +1 x126 +1 x132 +1 x138 +1 x144 +1 x150 +1 x156 +1 x162 +1 x168 +1 x174 +1 x180 >= 9;
-1 x72 -1 x78 -1 x84 -1 x90 -1 x96 -1 x102 -1 x108 -1 x114 -1 x120 -1 x126 -1 x132 -1 x138 -1 x144 -1 x150 -1 x156 -1 x162 -1 x168 -1 x174 -1 x180 >= -10;
+1 x73 +1 x79 +1 x85 +1 x91 +1 x97 +1 x103 +1 x109 +1 x115 +1 x121 +1 x127 +1 x133 +1 x139 +1 x145 +1 x151 +1 x157 +1 x163 +1 x169 +1 x175 +1 x181 >= 9;
-1 x73 -1 x79 -1 x85 -1 x91 -1 x97 -1 x103 -1 x109 -1 x115 -1 x121 -1 x127 -1 x133 -1 x139 -1 x145 -1 x151 -1 x157 -1 x163 -1 x169 -1 x175 -1 x181 >= -10;
+1 x74 +1 x80 +1 x86 +1 x92 +1 x98 +1 x104 +1 x110 +1 x116 +1 x122 +1 x128 +1 x134 +1 x140 +1 x146 +1 x152 +1 x158 +1 x164 +1 x170 +1 x176 +1 x182 >= 9;
-1 x74 -1 x80 -1 x86 -1 x92 -1 x98 -1 x104 -1 x110 -1 x116 -1 x122 -1 x128 -1 x134 -1 x140 -1 x146 -1 x152 -1 x158 -1 x164 -1 x170 -1 x176 -1 x182 >= -10;
+1 x75 +1 x81 +1 x87 +1 x93 +1 x99 +1 x105 +1 x111 +1 x117 +1 x123 +1 x129 +1 x135 +1 x141 +1 x147 +1 x153 +1 x159 +1 x165 +1 x171 +1 x177 +1 x183 >= 9;
-1 x75 -1 x81 -1 x87 -1 x93 -1 x99 -1 x105 -1 x111 -1 x117 -1 x123 -1 x129 -1 x135 -1 x141 -1 x147 -1 x153 -1 x159 -1 x165 -1 x171 -1 x177 -1 x183 >= -10;
+1 x76 +1 x82 +1 x88 +1 x94 +1 x100 +1 x106 +1 x112 +1 x118 +1 x124 +1 x130 +1 x136 +1 x142 +1 x148 +1 x154 +1 x160 +1 x166 +1 x172 +1 x178 +1 x184 >= 9;
-1 x76 -1 x82 -1 x88 -1 x94 -1 x100 -1 x106 -1 x112 -1 x118 -1 x124 -1 x130 -1 x136 -1 x142 -1 x148 -1 x154 -1 x160 -1 x166 -1 x172 -1 x178 -1 x184 >= -10;
+1 x77 +1 x83 +1 x89 +1 x95 +1 x101 +1 x107 +1 x113 +1 x119 +1 x125 +1 x131 +1 x137 +1 x143 +1 x149 +1 x155 +1 x161 +1 x167 +1 x173 +1 x179 +1 x185 >= 9;
-1 x77 -1 x83 -1 x89 -1 x95 -1 x101 -1 x107 -1 x113 -1 x119 -1 x125 -1 x131 -1 x137 -1 x143 -1 x149 -1 x155 -1 x161 -1 x167 -1 x173 -1 x179 -1 x185 >= -10;
+1 x78 +1 x84 +1 x90 +1 x96 +1 x102 +1 x108 +1 x114 +1 x120 +1 x126 +1 x132 +1 x138 +1 x144 +1 x150 +1 x156 +1 x162 +1 x168 +1 x174 +1 x180 +1 x186 >= 9;
-1 x78 -1 x84 -1 x90 -1 x96 -1 x102 -1 x108 -1 x114 -1 x120 -1 x126 -1 x132 -1 x138 -1 x144 -1 x150 -1 x156 -1 x162 -1 x168 -1 x174 -1 x180 -1 x186 >= -10;
+1 x79 +1 x85 +1 x91 +1 x97 +1 x103 +1 x109 +1 x115 +1 x121 +1 x127 +1 x133 +1 x139 +1 x145 +1 x151 +1 x157 +1 x163 +1 x169 +1 x175 +1 x181 +1 x187 >= 9;
-1 x79 -1 x85 -1 x91 -1 x97 -1 x103 -1 x109 -1 x115 -1 x121 -1 x127 -1 x133 -1 x139 -1 x145 -1 x151 -1 x157 -1 x163 -1 x169 -1 x175 -1 x181 -1 x187 >= -10;
+1 x80 +1 x86 +1 x92 +1 x98 +1 x104 +1 x110 +1 x116 +1 x122 +1 x128 +1 x134 +1 x140 +1 x146 +1 x152 +1 x158 +1 x164 +1 x170 +1 x176 +1 x182 +1 x188 >= 9;
-1 x80 -1 x86 -1 x92 -1 x98 -1 x104 -1 x110 -1 x116 -1 x122 -1 x128 -1 x134 -1 x140 -1 x146 -1 x152 -1 x158 -1 x164 -1 x170 -1 x176 -1 x182 -1 x188 >= -10;
+1 x81 +1 x87 +1 x93 +1 x99 +1 x105 +1 x111 +1 x117 +1 x123 +1 x129 +1 x135 +1 x141 +1 x147 +1 x153 +1 x159 +1 x165 +1 x171 +1 x177 +1 x183 +1 x189 >= 9;
-1 x81 -1 x87 -1 x93 -1 x99 -1 x105 -1 x111 -1 x117 -1 x123 -1 x129 -1 x135 -1 x141 -1 x147 -1 x153 -1 x159 -1 x165 -1 x171 -1 x177 -1 x183 -1 x189 >= -10;
+1 x82 +1 x88 +1 x94 +1 x100 +1 x106 +1 x112 +1 x118 +1 x124 +1 x130 +1 x136 +1 x142 +1 x148 +1 x154 +1 x160 +1 x166 +1 x172 +1 x178 +1 x184 +1 x190 >= 9;
-1 x82 -1 x88 -1 x94 -1 x100 -1 x106 -1 x112 -1 x118 -1 x124 -1 x130 -1 x136 -1 x142 -1 x148 -1 x154 -1 x160 -1 x166 -1 x172 -1 x178 -1 x184 -1 x190 >= -10;
+1 x83 +1 x89 +1 x95 +1 x101 +1 x107 +1 x113 +1 x119 +1 x125 +1 x131 +1 x137 +1 x143 +1 x149 +1 x155 +1 x161 +1 x167 +1 x173 +1 x179 +1 x185 +1 x191 >= 9;
-1 x83 -1 x89 -1 x95 -1 x101 -1 x107 -1 x113 -1 x119 -1 x125 -1 x131 -1 x137 -1 x143 -1 x149 -1 x155 -1 x161 -1 x167 -1 x173 -1 x179 -1 x185 -1 x191 >= -10;
+1 x84 +1 x90 +1 x96 +1 x102 +1 x108 +1 x114 +1 x120 +1 x126 +1 x132 +1 x138 +1 x144 +1 x150 +1 x156 +1 x162 +1 x168 +1 x174 +1 x180 +1 x186 +1 x192 >= 9;
-1 x84 -1 x90 -1 x96 -1 x102 -1 x108 -1 x114 -1 x120 -1 x126 -1 x132 -1 x138 -1 x144 -1 x150 -1 x156 -1 x162 -1 x168 -1 x174 -1 x180 -1 x186 -1 x192 >= -10;
+1 x85 +1 x91 +1 x97 +1 x103 +1 x109 +1 x115 +1 x121 +1 x127 +1 x133 +1 x139 +1 x145 +1 x151 +1 x157 +1 x163 +1 x169 +1 x175 +1 x181 +1 x187 +1 x193 >= 9;
-1 x85 -1 x91 -1 x97 -1 x103 -1 x109 -1 x115 -1 x121 -1 x127 -1 x133 -1 x139 -1 x145 -1 x151 -1 x157 -1 x163 -1 x169 -1 x175 -1 x181 -1 x187 -1 x193 >= -10;
+1 x86 +1 x92 +1 x98 +1 x104 +1 x110 +1 x116 +1 x122 +1 x128 +1 x134 +1 x140 +1 x146 +1 x152 +1 x158 +1 x164 +1 x170 +1 x176 +1 x182 +1 x188 +1 x194 >= 9;
-1 x86 -1 x92 -1 x98 -1 x104 -1 x110 -1 x116 -1 x122 -1 x128 -1 x134 -1 x140 -1 x146 -1 x152 -1 x158 -1 x164 -1 x170 -1 x176 -1 x182 -1 x188 -1 x194 >= -10;
+1 x87 +1 x93 +1 x99 +1 x105 +1 x111 +1 x117 +1 x123 +1 x129 +1 x135 +1 x141 +1 x147 +1 x153 +1 x159 +1 x165 +1 x171 +1 x177 +1 x183 +1 x189 +1 x195 >= 9;
-1 x87 -1 x93 -1 x99 -1 x105 -1 x111 -1 x117 -1 x123 -1 x129 -1 x135 -1 x141 -1 x147 -1 x153 -1 x159 -1 x165 -1 x171 -1 x177 -1 x183 -1 x189 -1 x195 >= -10;
+1 x88 +1 x94 +1 x100 +1 x106 +1 x112 +1 x118 +1 x124 +1 x130 +1 x136 +1 x142 +1 x148 +1 x154 +1 x160 +1 x166 +1 x172 +1 x178 +1 x184 +1 x190 +1 x196 >= 9;
-1 x88 -1 x94 -1 x100 -1 x106 -1 x112 -1 x118 -1 x124 -1 x130 -1 x136 -1 x142 -1 x148 -1 x154 -1 x160 -1 x166 -1 x172 -1 x178 -1 x184 -1 x190 -1 x196 >= -10;
+1 x89 +1 x95 +1 x101 +1 x107 +1 x113 +1 x119 +1 x125 +1 x131 +1 x137 +1 x143 +1 x149 +1 x155 +1 x161 +1 x167 +1 x173 +1 x179 +1 x185 +1 x191 +1 x197 >= 9;
-1 x89 -1 x95 -1 x101 -1 x107 -1 x113 -1 x119 -1 x125 -1 x131 -1 x137 -1 x143 -1 x149 -1 x155 -1 x161 -1 x167 -1 x173 -1 x179 -1 x185 -1 x191 -1 x197 >= -10;
+1 x90 +1 x96 +1 x102 +1 x108 +1 x114 +1 x120 +1 x126 +1 x132 +1 x138 +1 x144 +1 x150 +1 x156 +1 x162 +1 x168 +1 x174 +1 x180 +1 x186 +1 x192 +1 x198 >= 9;
-1 x90 -1 x96 -1 x102 -1 x108 -1 x114 -1 x120 -1 x126 -1 x132 -1 x138 -1 x144 -1 x150 -1 x156 -1 x162 -1 x168 -1 x174 -1 x180 -1 x186 -1 x192 -1 x198 >= -10;
+1 x91 +1 x97 +1 x103 +1 x109 +1 x115 +1 x121 +1 x127 +1 x133 +1 x139 +1 x145 +1 x151 +1 x157 +1 x163 +1 x169 +1 x175 +1 x181 +1 x187 +1 x193 +1 x199 >= 9;
-1 x91 -1 x97 -1 x103 -1 x109 -1 x115 -1 x121 -1 x127 -1 x133 -1 x139 -1 x145 -1 x151 -1 x157 -1 x163 -1 x169 -1 x175 -1 x181 -1 x187 -1 x193 -1 x199 >= -10;
+1 x92 +1 x98 +1 x104 +1 x110 +1 x116 +1 x122 +1 x128 +1 x134 +1 x140 +1 x146 +1 x152 +1 x158 +1 x164 +1 x170 +1 x176 +1 x182 +1 x188 +1 x194 +1 x200 >= 9;
-1 x92 -1 x98 -1 x104 -1 x110 -1 x116 -1 x122 -1 x128 -1 x134 -1 x140 -1 x146 -1 x152 -1 x158 -1 x164 -1 x170 -1 x176 -1 x182 -1 x188 -1 x194 -1 x200 >= -10;
+1 x93 +1 x99 +1 x105 +1 x111 +1 x117 +1 x123 +1 x129 +1 x135 +1 x141 +1 x147 +1 x153 +1 x159 +1 x165 +1 x171 +1 x177 +1 x183 +1 x189 +1 x195 +1 x201 >= 9;
-1 x93 -1 x99 -1 x105 -1 x111 -1 x117 -1 x123 -1 x129 -1 x135 -1 x141 -1 x147 -1 x153 -1 x159 -1 x165 -1 x171 -1 x177 -1 x183 -1 x189 -1 x195 -1 x201 >= -10;
+1 x94 +1 x100 +1 x106 +1 x112 +1 x118 +1 x124 +1 x130 +1 x136 +1 x142 +1 x148 +1 x154 +1 x160 +1 x166 +1 x172 +1 x178 +1 x184 +1 x190 +1 x196 +1 x202 >= 9;
-1 x94 -1 x100 -1 x106 -1 x112 -1 x118 -1 x124 -1 x130 -1 x136 -1 x142 -1 x148 -1 x154 -1 x160 -1 x166 -1 x172 -1 x178 -1 x184 -1 x190 -1 x196 -1 x202 >= -10;
+1 x95 +1 x101 +1 x107 +1 x113 +1 x119 +1 x125 +1 x131 +1 x137 +1 x143 +1 x149 +1 x155 +1 x161 +1 x167 +1 x173 +1 x179 +1 x185 +1 x191 +1 x197 +1 x203 >= 9;
-1 x95 -1 x101 -1 x107 -1 x113 -1 x119 -1 x125 -1 x131 -1 x137 -1 x143 -1 x149 -1 x155 -1 x161 -1 x167 -1 x173 -1 x179 -1 x185 -1 x191 -1 x197 -1 x203 >= -10;
+1 x96 +1 x102 +1 x108 +1 x114 +1 x120 +1 x126 +1 x132 +1 x138 +1 x144 +1 x150 +1 x156 +1 x162 +1 x168 +1 x174 +1 x180 +1 x186 +1 x192 +1 x198 +1 x204 >= 9;
-1 x96 -1 x102 -1 x108 -1 x114 -1 x120 -1 x126 -1 x132 -1 x138 -1 x144 -1 x150 -1 x156 -1 x162 -1 x168 -1 x174 -1 x180 -1 x186 -1 x192 -1 x198 -1 x204 >= -10;
+1 x97 +1 x103 +1 x109 +1 x115 +1 x121 +1 x127 +1 x133 +1 x139 +1 x145 +1 x151 +1 x157 +1 x163 +1 x169 +1 x175 +1 x181 +1 x187 +1 x193 +1 x199 +1 x205 >= 9;
-1 x97 -1 x103 -1 x109 -1 x115 -1 x121 -1 x127 -1 x133 -1 x139 -1 x145 -1 x151 -1 x157 -1 x163 -1 x169 -1 x175 -1 x181 -1 x187 -1 x193 -1 x199 -1 x205 >= -10;
+1 x98 +1 x104 +1 x110 +1 x116 +1 x122 +1 x128 +1 x134 +1 x140 +1 x146 +1 x152 +1 x158 +1 x164 +1 x170 +1 x176 +1 x182 +1 x188 +1 x194 +1 x200 +1 x206 >= 9;
-1 x98 -1 x104 -1 x110 -1 x116 -1 x122 -1 x128 -1 x134 -1 x140 -1 x146 -1 x152 -1 x158 -1 x164 -1 x170 -1 x176 -1 x182 -1 x188 -1 x194 -1 x200 -1 x206 >= -10;
+1 x99 +1 x105 +1 x111 +1 x117 +1 x123 +1 x129 +1 x135 +1 x141 +1 x147 +1 x153 +1 x159 +1 x165 +1 x171 +1 x177 +1 x183 +1 x189 +1 x195 +1 x201 +1 x207 >= 9;
-1 x99 -1 x105 -1 x111 -1 x117 -1 x123 -1 x129 -1 x135 -1 x141 -1 x147 -1 x153 -1 x159 -1 x165 -1 x171 -1 x177 -1 x183 -1 x189 -1 x195 -1 x201 -1 x207 >= -10;
+1 x100 +1 x106 +1 x112 +1 x118 +1 x124 +1 x130 +1 x136 +1 x142 +1 x148 +1 x154 +1 x160 +1 x166 +1 x172 +1 x178 +1 x184 +1 x190 +1 x196 +1 x202 +1 x208 >= 9;
-1 x100 -1 x106 -1 x112 -1 x118 -1 x124 -1 x130 -1 x136 -1 x142 -1 x148 -1 x154 -1 x160 -1 x166 -1 x172 -1 x178 -1 x184 -1 x190 -1 x196 -1 x202 -1 x208 >= -10;
+1 x101 +1 x107 +1 x113 +1 x119 +1 x125 +1 x131 +1 x137 +1 x143 +1 x149 +1 x155 +1 x161 +1 x167 +1 x173 +1 x179 +1 x185 +1 x191 +1 x197 +1 x203 +1 x209 >= 9;
-1 x101 -1 x107 -1 x113 -1 x119 -1 x125 -1 x131 -1 x137 -1 x143 -1 x149 -1 x155 -1 x161 -1 x167 -1 x173 -1 x179 -1 x185 -1 x191 -1 x197 -1 x203 -1 x209 >= -10;
+1 x102 +1 x108 +1 x114 +1 x120 +1 x126 +1 x132 +1 x138 +1 x144 +1 x150 +1 x156 +1 x162 +1 x168 +1 x174 +1 x180 +1 x186 +1 x192 +1 x198 +1 x204 +1 x210 >= 9;
-1 x102 -1 x108 -1 x114 -1 x120 -1 x126 -1 x132 -1 x138 -1 x144 -1 x150 -1 x156 -1 x162 -1 x168 -1 x174 -1 x180 -1 x186 -1 x192 -1 x198 -1 x204 -1 x210 >= -10;
+1 x103 +1 x109 +1 x115 +1 x121 +1 x127 +1 x133 +1 x139 +1 x145 +1 x151 +1 x157 +1 x163 +1 x169 +1 x175 +1 x181 +1 x187 +1 x193 +1 x199 +1 x205 +1 x211 >= 9;
-1 x103 -1 x109 -1 x115 -1 x121 -1 x127 -1 x133 -1 x139 -1 x145 -1 x151 -1 x157 -1 x163 -1 x169 -1 x175 -1 x181 -1 x187 -1 x193 -1 x199 -1 x205 -1 x211 >= -10;
+1 x104 +1 x110 +1 x116 +1 x122 +1 x128 +1 x134 +1 x140 +1 x146 +1 x152 +1 x158 +1 x164 +1 x170 +1 x176 +1 x182 +1 x188 +1 x194 +1 x200 +1 x206 +1 x212 >= 9;
-1 x104 -1 x110 -1 x116 -1 x122 -1 x128 -1 x134 -1 x140 -1 x146 -1 x152 -1 x158 -1 x164 -1 x170 -1 x176 -1 x182 -1 x188 -1 x194 -1 x200 -1 x206 -1 x212 >= -10;
+1 x105 +1 x111 +1 x117 +1 x123 +1 x129 +1 x135 +1 x141 +1 x147 +1 x153 +1 x159 +1 x165 +1 x171 +1 x177 +1 x183 +1 x189 +1 x195 +1 x201 +1 x207 +1 x213 >= 9;
-1 x105 -1 x111 -1 x117 -1 x123 -1 x129 -1 x135 -1 x141 -1 x147 -1 x153 -1 x159 -1 x165 -1 x171 -1 x177 -1 x183 -1 x189 -1 x195 -1 x201 -1 x207 -1 x213 >= -10;
+1 x106 +1 x112 +1 x118 +1 x124 +1 x130 +1 x136 +1 x142 +1 x148 +1 x154 +1 x160 +1 x166 +1 x172 +1 x178 +1 x184 +1 x190 +1 x196 +1 x202 +1 x208 +1 x214 >= 9;
-1 x106 -1 x112 -1 x118 -1 x124 -1 x130 -1 x136 -1 x142 -1 x148 -1 x154 -1 x160 -1 x166 -1 x172 -1 x178 -1 x184 -1 x190 -1 x196 -1 x202 -1 x208 -1 x214 >= -10;
+1 x107 +1 x113 +1 x119 +1 x125 +1 x131 +1 x137 +1 x143 +1 x149 +1 x155 +1 x161 +1 x167 +1 x173 +1 x179 +1 x185 +1 x191 +1 x197 +1 x203 +1 x209 +1 x215 >= 9;
-1 x107 -1 x113 -1 x119 -1 x125 -1 x131 -1 x137 -1 x143 -1 x149 -1 x155 -1 x161 -1 x167 -1 x173 -1 x179 -1 x185 -1 x191 -1 x197 -1 x203 -1 x209 -1 x215 >= -10;
+1 x108 +1 x114 +1 x120 +1 x126 +1 x132 +1 x138 +1 x144 +1 x150 +1 x156 +1 x162 +1 x168 +1 x174 +1 x180 +1 x186 +1 x192 +1 x198 +1 x204 +1 x210 +1 x216 >= 9;
-1 x108 -1 x114 -1 x120 -1 x126 -1 x132 -1 x138 -1 x144 -1 x150 -1 x156 -1 x162 -1 x168 -1 x174 -1 x180 -1 x186 -1 x192 -1 x198 -1 x204 -1 x210 -1 x216 >= -10;
+1 x109 +1 x115 +1 x121 +1 x127 +1 x133 +1 x139 +1 x145 +1 x151 +1 x157 +1 x163 +1 x169 +1 x175 +1 x181 +1 x187 +1 x193 +1 x199 +1 x205 +1 x211 +1 x217 >= 9;
-1 x109 -1 x115 -1 x121 -1 x127 -1 x133 -1 x139 -1 x145 -1 x151 -1 x157 -1 x163 -1 x169 -1 x175 -1 x181 -1 x187 -1 x193 -1 x199 -1 x205 -1 x211 -1 x217 >= -10;
+1 x110 +1 x116 +1 x122 +1 x128 +1 x134 +1 x140 +1 x146 +1 x152 +1 x158 +1 x164 +1 x170 +1 x176 +1 x182 +1 x188 +1 x194 +1 x200 +1 x206 +1 x212 +1 x218 >= 9;
-1 x110 -1 x116 -1 x122 -1 x128 -1 x134 -1 x140 -1 x146 -1 x152 -1 x158 -1 x164 -1 x170 -1 x176 -1 x182 -1 x188 -1 x194 -1 x200 -1 x206 -1 x212 -1 x218 >= -10;
+1 x111 +1 x117 +1 x123 +1 x129 +1 x135 +1 x141 +1 x147 +1 x153 +1 x159 +1 x165 +1 x171 +1 x177 +1 x183 +1 x189 +1 x195 +1 x201 +1 x207 +1 x213 +1 x219 >= 9;
-1 x111 -1 x117 -1 x123 -1 x129 -1 x135 -1 x141 -1 x147 -1 x153 -1 x159 -1 x165 -1 x171 -1 x177 -1 x183 -1 x189 -1 x195 -1 x201 -1 x207 -1 x213 -1 x219 >= -10;
+1 x112 +1 x118 +1 x124 +1 x130 +1 x136 +1 x142 +1 x148 +1 x154 +1 x160 +1 x166 +1 x172 +1 x178 +1 x184 +1 x190 +1 x196 +1 x202 +1 x208 +1 x214 +1 x220 >= 9;
-1 x112 -1 x118 -1 x124 -1 x130 -1 x136 -1 x142 -1 x148 -1 x154 -1 x160 -1 x166 -1 x172 -1 x178 -1 x184 -1 x190 -1 x196 -1 x202 -1 x208 -1 x214 -1 x220 >= -10;
+1 x113 +1 x119 +1 x125 +1 x131 +1 x137 +1 x143 +1 x149 +1 x155 +1 x161 +1 x167 +1 x173 +1 x179 +1 x185 +1 x191 +1 x197 +1 x203 +1 x209 +1 x215 +1 x221 >= 9;
-1 x113 -1 x119 -1 x125 -1 x131 -1 x137 -1 x143 -1 x149 -1 x155 -1 x161 -1 x167 -1 x173 -1 x179 -1 x185 -1 x191 -1 x197 -1 x203 -1 x209 -1 x215 -1 x221 >= -10;
+1 x114 +1 x120 +1 x126 +1 x132 +1 x138 +1 x144 +1 x150 +1 x156 +1 x162 +1 x168 +1 x174 +1 x180 +1 x186 +1 x192 +1 x198 +1 x204 +1 x210 +1 x216 +1 x222 >= 9;
-1 x114 -1 x120 -1 x126 -1 x132 -1 x138 -1 x144 -1 x150 -1 x156 -1 x162 -1 x168 -1 x174 -1 x180 -1 x186 -1 x192 -1 x198 -1 x204 -1 x210 -1 x216 -1 x222 >= -10;
+1 x115 +1 x121 +1 x127 +1 x133 +1 x139 +1 x145 +1 x151 +1 x157 +1 x163 +1 x169 +1 x175 +1 x181 +1 x187 +1 x193 +1 x199 +1 x205 +1 x211 +1 x217 +1 x223 >= 9;
-1 x115 -1 x121 -1 x127 -1 x133 -1 x139 -1 x145 -1 x151 -1 x157 -1 x163 -1 x169 -1 x175 -1 x181 -1 x187 -1 x193 -1 x199 -1 x205 -1 x211 -1 x217 -1 x223 >= -10;
+1 x116 +1 x122 +1 x128 +1 x134 +1 x140 +1 x146 +1 x152 +1 x158 +1 x164 +1 x170 +1 x176 +1 x182 +1 x188 +1 x194 +1 x200 +1 x206 +1 x212 +1 x218 +1 x224 >= 9;
-1 x116 -1 x122 -1 x128 -1 x134 -1 x140 -1 x146 -1 x152 -1 x158 -1 x164 -1 x170 -1 x176 -1 x182 -1 x188 -1 x194 -1 x200 -1 x206 -1 x212 -1 x218 -1 x224 >= -10;
+1 x117 +1 x123 +1 x129 +1 x135 +1 x141 +1 x147 +1 x153 +1 x159 +1 x165 +1 x171 +1 x177 +1 x183 +1 x189 +1 x195 +1 x201 +1 x207 +1 x213 +1 x219 +1 x225 >= 9;
-1 x117 -1 x123 -1 x129 -1 x135 -1 x141 -1 x147 -1 x153 -1 x159 -1 x165 -1 x171 -1 x177 -1 x183 -1 x189 -1 x195 -1 x201 -1 x207 -1 x213 -1 x219 -1 x225 >= -10;
+1 x118 +1 x124 +1 x130 +1 x136 +1 x142 +1 x148 +1 x154 +1 x160 +1 x166 +1 x172 +1 x178 +1 x184 +1 x190 +1 x196 +1 x202 +1 x208 +1 x214 +1 x220 +1 x226 >= 9;
-1 x118 -1 x124 -1 x130 -1 x136 -1 x142 -1 x148 -1 x154 -1 x160 -1 x166 -1 x172 -1 x178 -1 x184 -1 x190 -1 x196 -1 x202 -1 x208 -1 x214 -1 x220 -1 x226 >= -10;
+1 x119 +1 x125 +1 x131 +1 x137 +1 x143 +1 x149 +1 x155 +1 x161 +1 x167 +1 x173 +1 x179 +1 x185 +1 x191 +1 x197 +1 x203 +1 x209 +1 x215 +1 x221 +1 x227 >= 9;
-1 x119 -1 x125 -1 x131 -1 x137 -1 x143 -1 x149 -1 x155 -1 x161 -1 x167 -1 x173 -1 x179 -1 x185 -1 x191 -1 x197 -1 x203 -1 x209 -1 x215 -1 x221 -1 x227 >= -10;
+1 x120 +1 x126 +1 x132 +1 x138 +1 x144 +1 x150 +1 x156 +1 x162 +1 x168 +1 x174 +1 x180 +1 x186 +1 x192 +1 x198 +1 x204 +1 x210 +1 x216 +1 x222 +1 x228 >= 9;
-1 x120 -1 x126 -1 x132 -1 x138 -1 x144 -1 x150 -1 x156 -1 x162 -1 x168 -1 x174 -1 x180 -1 x186 -1 x192 -1 x198 -1 x204 -1 x210 -1 x216 -1 x222 -1 x228 >= -10;
+1 x121 +1 x127 +1 x133 +1 x139 +1 x145 +1 x151 +1 x157 +1 x163 +1 x169 +1 x175 +1 x181 +1 x187 +1 x193 +1 x199 +1 x205 +1 x211 +1 x217 +1 x223 +1 x229 >= 9;
-1 x121 -1 x127 -1 x133 -1 x139 -1 x145 -1 x151 -1 x157 -1 x163 -1 x169 -1 x175 -1 x181 -1 x187 -1 x193 -1 x199 -1 x205 -1 x211 -1 x217 -1 x223 -1 x229 >= -10;
+1 x122 +1 x128 +1 x134 +1 x140 +1 x146 +1 x152 +1 x158 +1 x164 +1 x170 +1 x176 +1 x182 +1 x188 +1 x194 +1 x200 +1 x206 +1 x212 +1 x218 +1 x224 +1 x230 >= 9;
-1 x122 -1 x128 -1 x134 -1 x140 -1 x146 -1 x152 -1 x158 -1 x164 -1 x170 -1 x176 -1 x182 -1 x188 -1 x194 -1 x200 -1 x206 -1 x212 -1 x218 -1 x224 -1 x230 >= -10;
+1 x123 +1 x129 +1 x135 +1 x141 +1 x147 +1 x153 +1 x159 +1 x165 +1 x171 +1 x177 +1 x183 +1 x189 +1 x195 +1 x201 +1 x207 +1 x213 +1 x219 +1 x225 +1 x231 >= 9;
-1 x123 -1 x129 -1 x135 -1 x141 -1 x147 -1 x153 -1 x159 -1 x165 -1 x171 -1 x177 -1 x183 -1 x189 -1 x195 -1 x201 -1 x207 -1 x213 -1 x219 -1 x225 -1 x231 >= -10;
+1 x124 +1 x130 +1 x136 +1 x142 +1 x148 +1 x154 +1 x160 +1 x166 +1 x172 +1 x178 +1 x184 +1 x190 +1 x196 +1 x202 +1 x208 +1 x214 +1 x220 +1 x226 +1 x232 >= 9;
-1 x124 -1 x130 -1 x136 -1 x142 -1 x148 -1 x154 -1 x160 -1 x166 -1 x172 -1 x178 -1 x184 -1 x190 -1 x196 -1 x202 -1 x208 -1 x214 -1 x220 -1 x226 -1 x232 >= -10;
+1 x125 +1 x131 +1 x137 +1 x143 +1 x149 +1 x155 +1 x161 +1 x167 +1 x173 +1 x179 +1 x185 +1 x191 +1 x197 +1 x203 +1 x209 +1 x215 +1 x221 +1 x227 +1 x233 >= 9;
-1 x125 -1 x131 -1 x137 -1 x143 -1 x149 -1 x155 -1 x161 -1 x167 -1 x173 -1 x179 -1 x185 -1 x191 -1 x197 -1 x203 -1 x209 -1 x215 -1 x221 -1 x227 -1 x233 >= -10;
+1 x126 +1 x132 +1 x138 +1 x144 +1 x150 +1 x156 +1 x162 +1 x168 +1 x174 +1 x180 +1 x186 +1 x192 +1 x198 +1 x204 +1 x210 +1 x216 +1 x222 +1 x228 +1 x234 >= 9;
-1 x126 -1 x132 -1 x138 -1 x144 -1 x150 -1 x156 -1 x162 -1 x168 -1 x174 -1 x180 -1 x186 -1 x192 -1 x198 -1 x204 -1 x210 -1 x216 -1 x222 -1 x228 -1 x234 >= -10;
+1 x127 +1 x133 +1 x139 +1 x145 +1 x151 +1 x157 +1 x163 +1 x169 +1 x175 +1 x181 +1 x187 +1 x193 +1 x199 +1 x205 +1 x211 +1 x217 +1 x223 +1 x229 +1 x235 >= 9;
-1 x127 -1 x133 -1 x139 -1 x145 -1 x151 -1 x157 -1 x163 -1 x169 -1 x175 -1 x181 -1 x187 -1 x193 -1 x199 -1 x205 -1 x211 -1 x217 -1 x223 -1 x229 -1 x235 >= -10;
+1 x128 +1 x134 +1 x140 +1 x146 +1 x152 +1 x158 +1 x164 +1 x170 +1 x176 +1 x182 +1 x188 +1 x194 +1 x200 +1 x206 +1 x212 +1 x218 +1 x224 +1 x230 +1 x236 >= 9;
-1 x128 -1 x134 -1 x140 -1 x146 -1 x152 -1 x158 -1 x164 -1 x170 -1 x176 -1 x182 -1 x188 -1 x194 -1 x200 -1 x206 -1 x212 -1 x218 -1 x224 -1 x230 -1 x236 >= -10;
+1 x129 +1 x135 +1 x141 +1 x147 +1 x153 +1 x159 +1 x165 +1 x171 +1 x177 +1 x183 +1 x189 +1 x195 +1 x201 +1 x207 +1 x213 +1 x219 +1 x225 +1 x231 +1 x237 >= 9;
-1 x129 -1 x135 -1 x141 -1 x147 -1 x153 -1 x159 -1 x165 -1 x171 -1 x177 -1 x183 -1 x189 -1 x195 -1 x201 -1 x207 -1 x213 -1 x219 -1 x225 -1 x231 -1 x237 >= -10;
+1 x130 +1 x136 +1 x142 +1 x148 +1 x154 +1 x160 +1 x166 +1 x172 +1 x178 +1 x184 +1 x190 +1 x196 +1 x202 +1 x208 +1 x214 +1 x220 +1 x226 +1 x232 +1 x238 >= 9;
-1 x130 -1 x136 -1 x142 -1 x148 -1 x154 -1 x160 -1 x166 -1 x172 -1 x178 -1 x184 -1 x190 -1 x196 -1 x202 -1 x208 -1 x214 -1 x220 -1 x226 -1 x232 -1 x238 >= -10;
+1 x131 +1 x137 +1 x143 +1 x149 +1 x155 +1 x161 +1 x167 +1 x173 +1 x179 +1 x185 +1 x191 +1 x197 +1 x203 +1 x209 +1 x215 +1 x221 +1 x227 +1 x233 +1 x239 >= 9;
-1 x131 -1 x137 -1 x143 -1 x149 -1 x155 -1 x161 -1 x167 -1 x173 -1 x179 -1 x185 -1 x191 -1 x197 -1 x203 -1 x209 -1 x215 -1 x221 -1 x227 -1 x233 -1 x239 >= -10;
+1 x132 +1 x138 +1 x144 +1 x150 +1 x156 +1 x162 +1 x168 +1 x174 +1 x180 +1 x186 +1 x192 +1 x198 +1 x204 +1 x210 +1 x216 +1 x222 +1 x228 +1 x234 +1 x240 >= 9;
-1 x132 -1 x138 -1 x144 -1 x150 -1 x156 -1 x162 -1 x168 -1 x174 -1 x180 -1 x186 -1 x192 -1 x198 -1 x204 -1 x210 -1 x216 -1 x222 -1 x228 -1 x234 -1 x240 >= -10;
+1 x133 +1 x139 +1 x145 +1 x151 +1 x157 +1 x163 +1 x169 +1 x175 +1 x181 +1 x187 +1 x193 +1 x199 +1 x205 +1 x211 +1 x217 +1 x223 +1 x229 +1 x235 +1 x241 >= 9;
-1 x133 -1 x139 -1 x145 -1 x151 -1 x157 -1 x163 -1 x169 -1 x175 -1 x181 -1 x187 -1 x193 -1 x199 -1 x205 -1 x211 -1 x217 -1 x223 -1 x229 -1 x235 -1 x241 >= -10;
+1 x134 +1 x140 +1 x146 +1 x152 +1 x158 +1 x164 +1 x170 +1 x176 +1 x182 +1 x188 +1 x194 +1 x200 +1 x206 +1 x212 +1 x218 +1 x224 +1 x230 +1 x236 +1 x242 >= 9;
-1 x134 -1 x140 -1 x146 -1 x152 -1 x158 -1 x164 -1 x170 -1 x176 -1 x182 -1 x188 -1 x194 -1 x200 -1 x206 -1 x212 -1 x218 -1 x224 -1 x230 -1 x236 -1 x242 >= -10;
+1 x135 +1 x141 +1 x147 +1 x153 +1 x159 +1 x165 +1 x171 +1 x177 +1 x183 +1 x189 +1 x195 +1 x201 +1 x207 +1 x213 +1 x219 +1 x225 +1 x231 +1 x237 +1 x243 >= 9;
-1 x135 -1 x141 -1 x147 -1 x153 -1 x159 -1 x165 -1 x171 -1 x177 -1 x183 -1 x189 -1 x195 -1 x201 -1 x207 -1 x213 -1 x219 -1 x225 -1 x231 -1 x237 -1 x243 >= -10;
+1 x136 +1 x142 +1 x148 +1 x154 +1 x160 +1 x166 +1 x172 +1 x178 +1 x184 +1 x190 +1 x196 +1 x202 +1 x208 +1 x214 +1 x220 +1 x226 +1 x232 +1 x238 +1 x244 >= 9;
-1 x136 -1 x142 -1 x148 -1 x154 -1 x160 -1 x166 -1 x172 -1 x178 -1 x184 -1 x190 -1 x196 -1 x202 -1 x208 -1 x214 -1 x220 -1 x226 -1 x232 -1 x238 -1 x244 >= -10;
+1 x137 +1 x143 +1 x149 +1 x155 +1 x161 +1 x167 +1 x173 +1 x179 +1 x185 +1 x191 +1 x197 +1 x203 +1 x209 +1 x215 +1 x221 +1 x227 +1 x233 +1 x239 +1 x245 >= 9;
-1 x137 -1 x143 -1 x149 -1 x155 -1 x161 -1 x167 -1 x173 -1 x179 -1 x185 -1 x191 -1 x197 -1 x203 -1 x209 -1 x215 -1 x221 -1 x227 -1 x233 -1 x239 -1 x245 >= -10;
+1 x138 +1 x144 +1 x150 +1 x156 +1 x162 +1 x168 +1 x174 +1 x180 +1 x186 +1 x192 +1 x198 +1 x204 +1 x210 +1 x216 +1 x222 +1 x228 +1 x234 +1 x240 +1 x246 >= 9;
-1 x138 -1 x144 -1 x150 -1 x156 -1 x162 -1 x168 -1 x174 -1 x180 -1 x186 -1 x192 -1 x198 -1 x204 -1 x210 -1 x216 -1 x222 -1 x228 -1 x234 -1 x240 -1 x246 >= -10;
+1 x139 +1 x145 +1 x151 +1 x157 +1 x163 +1 x169 +1 x175 +1 x181 +1 x187 +1 x193 +1 x199 +1 x205 +1 x211 +1 x217 +1 x223 +1 x229 +1 x235 +1 x241 +1 x247 >= 9;
-1 x139 -1 x145 -1 x151 -1 x157 -1 x163 -1 x169 -1 x175 -1 x181 -1 x187 -1 x193 -1 x199 -1 x205 -1 x211 -1 x217 -1 x223 -1 x229 -1 x235 -1 x241 -1 x247 >= -10;
+1 x140 +1 x146 +1 x152 +1 x158 +1 x164 +1 x170 +1 x176 +1 x182 +1 x188 +1 x194 +1 x200 +1 x206 +1 x212 +1 x218 +1 x224 +1 x230 +1 x236 +1 x242 +1 x248 >= 9;
-1 x140 -1 x146 -1 x152 -1 x158 -1 x164 -1 x170 -1 x176 -1 x182 -1 x188 -1 x194 -1 x200 -1 x206 -1 x212 -1 x218 -1 x224 -1 x230 -1 x236 -1 x242 -1 x248 >= -10;
+1 x141 +1 x147 +1 x153 +1 x159 +1 x165 +1 x171 +1 x177 +1 x183 +1 x189 +1 x195 +1 x201 +1 x207 +1 x213 +1 x219 +1 x225 +1 x231 +1 x237 +1 x243 +1 x249 >= 9;
-1 x141 -1 x147 -1 x153 -1 x159 -1 x165 -1 x171 -1 x177 -1 x183 -1 x189 -1 x195 -1 x201 -1 x207 -1 x213 -1 x219 -1 x225 -1 x231 -1 x237 -1 x243 -1 x249 >= -10;
+1 x142 +1 x148 +1 x154 +1 x160 +1 x166 +1 x172 +1 x178 +1 x184 +1 x190 +1 x196 +1 x202 +1 x208 +1 x214 +1 x220 +1 x226 +1 x232 +1 x238 +1 x244 +1 x250 >= 9;
-1 x142 -1 x148 -1 x154 -1 x160 -1 x166 -1 x172 -1 x178 -1 x184 -1 x190 -1 x196 -1 x202 -1 x208 -1 x214 -1 x220 -1 x226 -1 x232 -1 x238 -1 x244 -1 x250 >= -10;
+1 x143 +1 x149 +1 x155 +1 x161 +1 x167 +1 x173 +1 x179 +1 x185 +1 x191 +1 x197 +1 x203 +1 x209 +1 x215 +1 x221 +1 x227 +1 x233 +1 x239 +1 x245 +1 x251 >= 9;
-1 x143 -1 x149 -1 x155 -1 x161 -1 x167 -1 x173 -1 x179 -1 x185 -1 x191 -1 x197 -1 x203 -1 x209 -1 x215 -1 x221 -1 x227 -1 x233 -1 x239 -1 x245 -1 x251 >= -10;
+1 x144 +1 x150 +1 x156 +1 x162 +1 x168 +1 x174 +1 x180 +1 x186 +1 x192 +1 x198 +1 x204 +1 x210 +1 x216 +1 x222 +1 x228 +1 x234 +1 x240 +1 x246 +1 x252 >= 9;
-1 x144 -1 x150 -1 x156 -1 x162 -1 x168 -1 x174 -1 x180 -1 x186 -1 x192 -1 x198 -1 x204 -1 x210 -1 x216 -1 x222 -1 x228 -1 x234 -1 x240 -1 x246 -1 x252 >= -10;
+1 x145 +1 x151 +1 x157 +1 x163 +1 x169 +1 x175 +1 x181 +1 x187 +1 x193 +1 x199 +1 x205 +1 x211 +1 x217 +1 x223 +1 x229 +1 x235 +1 x241 +1 x247 +1 x253 >= 9;
-1 x145 -1 x151 -1 x157 -1 x163 -1 x169 -1 x175 -1 x181 -1 x187 -1 x193 -1 x199 -1 x205 -1 x211 -1 x217 -1 x223 -1 x229 -1 x235 -1 x241 -1 x247 -1 x253 >= -10;
+1 x146 +1 x152 +1 x158 +1 x164 +1 x170 +1 x176 +1 x182 +1 x188 +1 x194 +1 x200 +1 x206 +1 x212 +1 x218 +1 x224 +1 x230 +1 x236 +1 x242 +1 x248 +1 x254 >= 9;
-1 x146 -1 x152 -1 x158 -1 x164 -1 x170 -1 x176 -1 x182 -1 x188 -1 x194 -1 x200 -1 x206 -1 x212 -1 x218 -1 x224 -1 x230 -1 x236 -1 x242 -1 x248 -1 x254 >= -10;
+1 x147 +1 x153 +1 x159 +1 x165 +1 x171 +1 x177 +1 x183 +1 x189 +1 x195 +1 x201 +1 x207 +1 x213 +1 x219 +1 x225 +1 x231 +1 x237 +1 x243 +1 x249 +1 x255 >= 9;
-1 x147 -1 x153 -1 x159 -1 x165 -1 x171 -1 x177 -1 x183 -1 x189 -1 x195 -1 x201 -1 x207 -1 x213 -1 x219 -1 x225 -1 x231 -1 x237 -1 x243 -1 x249 -1 x255 >= -10;
+1 x148 +1 x154 +1 x160 +1 x166 +1 x172 +1 x178 +1 x184 +1 x190 +1 x196 +1 x202 +1 x208 +1 x214 +1 x220 +1 x226 +1 x232 +1 x238 +1 x244 +1 x250 +1 x256 >= 9;
-1 x148 -1 x154 -1 x160 -1 x166 -1 x172 -1 x178 -1 x184 -1 x190 -1 x196 -1 x202 -1 x208 -1 x214 -1 x220 -1 x226 -1 x232 -1 x238 -1 x244 -1 x250 -1 x256 >= -10;
+1 x149 +1 x155 +1 x161 +1 x167 +1 x173 +1 x179 +1 x185 +1 x191 +1 x197 +1 x203 +1 x209 +1 x215 +1 x221 +1 x227 +1 x233 +1 x239 +1 x245 +1 x251 +1 x257 >= 9;
-1 x149 -1 x155 -1 x161 -1 x167 -1 x173 -1 x179 -1 x185 -1 x191 -1 x197 -1 x203 -1 x209 -1 x215 -1 x221 -1 x227 -1 x233 -1 x239 -1 x245 -1 x251 -1 x257 >= -10;
+1 x150 +1 x156 +1 x162 +1 x168 +1 x174 +1 x180 +1 x186 +1 x192 +1 x198 +1 x204 +1 x210 +1 x216 +1 x222 +1 x228 +1 x234 +1 x240 +1 x246 +1 x252 +1 x258 >= 9;
-1 x150 -1 x156 -1 x162 -1 x168 -1 x174 -1 x180 -1 x186 -1 x192 -1 x198 -1 x204 -1 x210 -1 x216 -1 x222 -1 x228 -1 x234 -1 x240 -1 x246 -1 x252 -1 x258 >= -10;
+1 x151 +1 x157 +1 x163 +1 x169 +1 x175 +1 x181 +1 x187 +1 x193 +1 x199 +1 x205 +1 x211 +1 x217 +1 x223 +1 x229 +1 x235 +1 x241 +1 x247 +1 x253 +1 x259 >= 9;
-1 x151 -1 x157 -1 x163 -1 x169 -1 x175 -1 x181 -1 x187 -1 x193 -1 x199 -1 x205 -1 x211 -1 x217 -1 x223 -1 x229 -1 x235 -1 x241 -1 x247 -1 x253 -1 x259 >= -10;
+1 x152 +1 x158 +1 x164 +1 x170 +1 x176 +1 x182 +1 x188 +1 x194 +1 x200 +1 x206 +1 x212 +1 x218 +1 x224 +1 x230 +1 x236 +1 x242 +1 x248 +1 x254 +1 x260 >= 9;
-1 x152 -1 x158 -1 x164 -1 x170 -1 x176 -1 x182 -1 x188 -1 x194 -1 x200 -1 x206 -1 x212 -1 x218 -1 x224 -1 x230 -1 x236 -1 x242 -1 x248 -1 x254 -1 x260 >= -10;
+1 x153 +1 x159 +1 x165 +1 x171 +1 x177 +1 x183 +1 x189 +1 x195 +1 x201 +1 x207 +1 x213 +1 x219 +1 x225 +1 x231 +1 x237 +1 x243 +1 x249 +1 x255 +1 x261 >= 9;
-1 x153 -1 x159 -1 x165 -1 x171 -1 x177 -1 x183 -1 x189 -1 x195 -1 x201 -1 x207 -1 x213 -1 x219 -1 x225 -1 x231 -1 x237 -1 x243 -1 x249 -1 x255 -1 x261 >= -10;
+1 x154 +1 x160 +1 x166 +1 x172 +1 x178 +1 x184 +1 x190 +1 x196 +1 x202 +1 x208 +1 x214 +1 x220 +1 x226 +1 x232 +1 x238 +1 x244 +1 x250 +1 x256 +1 x262 >= 9;
-1 x154 -1 x160 -1 x166 -1 x172 -1 x178 -1 x184 -1 x190 -1 x196 -1 x202 -1 x208 -1 x214 -1 x220 -1 x226 -1 x232 -1 x238 -1 x244 -1 x250 -1 x256 -1 x262 >= -10;
+1 x155 +1 x161 +1 x167 +1 x173 +1 x179 +1 x185 +1 x191 +1 x197 +1 x203 +1 x209 +1 x215 +1 x221 +1 x227 +1 x233 +1 x239 +1 x245 +1 x251 +1 x257 +1 x263 >= 9;
-1 x155 -1 x161 -1 x167 -1 x173 -1 x179 -1 x185 -1 x191 -1 x197 -1 x203 -1 x209 -1 x215 -1 x221 -1 x227 -1 x233 -1 x239 -1 x245 -1 x251 -1 x257 -1 x263 >= -10;
+1 x156 +1 x162 +1 x168 +1 x174 +1 x180 +1 x186 +1 x192 +1 x198 +1 x204 +1 x210 +1 x216 +1 x222 +1 x228 +1 x234 +1 x240 +1 x246 +1 x252 +1 x258 +1 x264 >= 9;
-1 x156 -1 x162 -1 x168 -1 x174 -1 x180 -1 x186 -1 x192 -1 x198 -1 x204 -1 x210 -1 x216 -1 x222 -1 x228 -1 x234 -1 x240 -1 x246 -1 x252 -1 x258 -1 x264 >= -10;
+1 x157 +1 x163 +1 x169 +1 x175 +1 x181 +1 x187 +1 x193 +1 x199 +1 x205 +1 x211 +1 x217 +1 x223 +1 x229 +1 x235 +1 x241 +1 x247 +1 x253 +1 x259 +1 x265 >= 9;
-1 x157 -1 x163 -1 x169 -1 x175 -1 x181 -1 x187 -1 x193 -1 x199 -1 x205 -1 x211 -1 x217 -1 x223 -1 x229 -1 x235 -1 x241 -1 x247 -1 x253 -1 x259 -1 x265 >= -10;
+1 x158 +1 x164 +1 x170 +1 x176 +1 x182 +1 x188 +1 x194 +1 x200 +1 x206 +1 x212 +1 x218 +1 x224 +1 x230 +1 x236 +1 x242 +1 x248 +1 x254 +1 x260 +1 x266 >= 9;
-1 x158 -1 x164 -1 x170 -1 x176 -1 x182 -1 x188 -1 x194 -1 x200 -1 x206 -1 x212 -1 x218 -1 x224 -1 x230 -1 x236 -1 x242 -1 x248 -1 x254 -1 x260 -1 x266 >= -10;
+1 x159 +1 x165 +1 x171 +1 x177 +1 x183 +1 x189 +1 x195 +1 x201 +1 x207 +1 x213 +1 x219 +1 x225 +1 x231 +1 x237 +1 x243 +1 x249 +1 x255 +1 x261 +1 x267 >= 9;
-1 x159 -1 x165 -1 x171 -1 x177 -1 x183 -1 x189 -1 x195 -1 x201 -1 x207 -1 x213 -1 x219 -1 x225 -1 x231 -1 x237 -1 x243 -1 x249 -1 x255 -1 x261 -1 x267 >= -10;
+1 x160 +1 x166 +1 x172 +1 x178 +1 x184 +1 x190 +1 x196 +1 x202 +1 x208 +1 x214 +1 x220 +1 x226 +1 x232 +1 x238 +1 x244 +1 x250 +1 x256 +1 x262 +1 x268 >= 9;
-1 x160 -1 x166 -1 x172 -1 x178 -1 x184 -1 x190 -1 x196 -1 x202 -1 x208 -1 x214 -1 x220 -1 x226 -1 x232 -1 x238 -1 x244 -1 x250 -1 x256 -1 x262 -1 x268 >= -10;
+1 x161 +1 x167 +1 x173 +1 x179 +1 x185 +1 x191 +1 x197 +1 x203 +1 x209 +1 x215 +1 x221 +1 x227 +1 x233 +1 x239 +1 x245 +1 x251 +1 x257 +1 x263 +1 x269 >= 9;
-1 x161 -1 x167 -1 x173 -1 x179 -1 x185 -1 x191 -1 x197 -1 x203 -1 x209 -1 x215 -1 x221 -1 x227 -1 x233 -1 x239 -1 x245 -1 x251 -1 x257 -1 x263 -1 x269 >= -10;
+1 x162 +1 x168 +1 x174 +1 x180 +1 x186 +1 x192 +1 x198 +1 x204 +1 x210 +1 x216 +1 x222 +1 x228 +1 x234 +1 x240 +1 x246 +1 x252 +1 x258 +1 x264 +1 x270 >= 9;
-1 x162 -1 x168 -1 x174 -1 x180 -1 x186 -1 x192 -1 x198 -1 x204 -1 x210 -1 x216 -1 x222 -1 x228 -1 x234 -1 x240 -1 x246 -1 x252 -1 x258 -1 x264 -1 x270 >= -10;
+1 x163 +1 x169 +1 x175 +1 x181 +1 x187 +1 x193 +1 x199 +1 x205 +1 x211 +1 x217 +1 x223 +1 x229 +1 x235 +1 x241 +1 x247 +1 x253 +1 x259 +1 x265 +1 x271 >= 9;
-1 x163 -1 x169 -1 x175 -1 x181 -1 x187 -1 x193 -1 x199 -1 x205 -1 x211 -1 x217 -1 x223 -1 x229 -1 x235 -1 x241 -1 x247 -1 x253 -1 x259 -1 x265 -1 x271 >= -10;
+1 x164 +1 x170 +1 x176 +1 x182 +1 x188 +1 x194 +1 x200 +1 x206 +1 x212 +1 x218 +1 x224 +1 x230 +1 x236 +1 x242 +1 x248 +1 x254 +1 x260 +1 x266 +1 x272 >= 9;
-1 x164 -1 x170 -1 x176 -1 x182 -1 x188 -1 x194 -1 x200 -1 x206 -1 x212 -1 x218 -1 x224 -1 x230 -1 x236 -1 x242 -1 x248 -1 x254 -1 x260 -1 x266 -1 x272 >= -10;
+1 x165 +1 x171 +1 x177 +1 x183 +1 x189 +1 x195 +1 x201 +1 x207 +1 x213 +1 x219 +1 x225 +1 x231 +1 x237 +1 x243 +1 x249 +1 x255 +1 x261 +1 x267 +1 x273 >= 9;
-1 x165 -1 x171 -1 x177 -1 x183 -1 x189 -1 x195 -1 x201 -1 x207 -1 x213 -1 x219 -1 x225 -1 x231 -1 x237 -1 x243 -1 x249 -1 x255 -1 x261 -1 x267 -1 x273 >= -10;
+1 x166 +1 x172 +1 x178 +1 x184 +1 x190 +1 x196 +1 x202 +1 x208 +1 x214 +1 x220 +1 x226 +1 x232 +1 x238 +1 x244 +1 x250 +1 x256 +1 x262 +1 x268 +1 x274 >= 9;
-1 x166 -1 x172 -1 x178 -1 x184 -1 x190 -1 x196 -1 x202 -1 x208 -1 x214 -1 x220 -1 x226 -1 x232 -1 x238 -1 x244 -1 x250 -1 x256 -1 x262 -1 x268 -1 x274 >= -10;
+1 x167 +1 x173 +1 x179 +1 x185 +1 x191 +1 x197 +1 x203 +1 x209 +1 x215 +1 x221 +1 x227 +1 x233 +1 x239 +1 x245 +1 x251 +1 x257 +1 x263 +1 x269 +1 x275 >= 9;
-1 x167 -1 x173 -1 x179 -1 x185 -1 x191 -1 x197 -1 x203 -1 x209 -1 x215 -1 x221 -1 x227 -1 x233 -1 x239 -1 x245 -1 x251 -1 x257 -1 x263 -1 x269 -1 x275 >= -10;
+1 x168 +1 x174 +1 x180 +1 x186 +1 x192 +1 x198 +1 x204 +1 x210 +1 x216 +1 x222 +1 x228 +1 x234 +1 x240 +1 x246 +1 x252 +1 x258 +1 x264 +1 x270 +1 x276 >= 9;
-1 x168 -1 x174 -1 x180 -1 x186 -1 x192 -1 x198 -1 x204 -1 x210 -1 x216 -1 x222 -1 x228 -1 x234 -1 x240 -1 x246 -1 x252 -1 x258 -1 x264 -1 x270 -1 x276 >= -10;
+1 x169 +1 x175 +1 x181 +1 x187 +1 x193 +1 x199 +1 x205 +1 x211 +1 x217 +1 x223 +1 x229 +1 x235 +1 x241 +1 x247 +1 x253 +1 x259 +1 x265 +1 x271 +1 x277 >= 9;
-1 x169 -1 x175 -1 x181 -1 x187 -1 x193 -1 x199 -1 x205 -1 x211 -1 x217 -1 x223 -1 x229 -1 x235 -1 x241 -1 x247 -1 x253 -1 x259 -1 x265 -1 x271 -1 x277 >= -10;
+1 x170 +1 x176 +1 x182 +1 x188 +1 x194 +1 x200 +1 x206 +1 x212 +1 x218 +1 x224 +1 x230 +1 x236 +1 x242 +1 x248 +1 x254 +1 x260 +1 x266 +1 x272 +1 x278 >= 9;
-1 x170 -1 x176 -1 x182 -1 x188 -1 x194 -1 x200 -1 x206 -1 x212 -1 x218 -1 x224 -1 x230 -1 x236 -1 x242 -1 x248 -1 x254 -1 x260 -1 x266 -1 x272 -1 x278 >= -10;
+1 x171 +1 x177 +1 x183 +1 x189 +1 x195 +1 x201 +1 x207 +1 x213 +1 x219 +1 x225 +1 x231 +1 x237 +1 x243 +1 x249 +1 x255 +1 x261 +1 x267 +1 x273 +1 x279 >= 9;
-1 x171 -1 x177 -1 x183 -1 x189 -1 x195 -1 x201 -1 x207 -1 x213 -1 x219 -1 x225 -1 x231 -1 x237 -1 x243 -1 x249 -1 x255 -1 x261 -1 x267 -1 x273 -1 x279 >= -10;
+1 x172 +1 x178 +1 x184 +1 x190 +1 x196 +1 x202 +1 x208 +1 x214 +1 x220 +1 x226 +1 x232 +1 x238 +1 x244 +1 x250 +1 x256 +1 x262 +1 x268 +1 x274 +1 x280 >= 9;
-1 x172 -1 x178 -1 x184 -1 x190 -1 x196 -1 x202 -1 x208 -1 x214 -1 x220 -1 x226 -1 x232 -1 x238 -1 x244 -1 x250 -1 x256 -1 x262 -1 x268 -1 x274 -1 x280 >= -10;
+1 x173 +1 x179 +1 x185 +1 x191 +1 x197 +1 x203 +1 x209 +1 x215 +1 x221 +1 x227 +1 x233 +1 x239 +1 x245 +1 x251 +1 x257 +1 x263 +1 x269 +1 x275 +1 x281 >= 9;
-1 x173 -1 x179 -1 x185 -1 x191 -1 x197 -1 x203 -1 x209 -1 x215 -1 x221 -1 x227 -1 x233 -1 x239 -1 x245 -1 x251 -1 x257 -1 x263 -1 x269 -1 x275 -1 x281 >= -10;
+1 x174 +1 x180 +1 x186 +1 x192 +1 x198 +1 x204 +1 x210 +1 x216 +1 x222 +1 x228 +1 x234 +1 x240 +1 x246 +1 x252 +1 x258 +1 x264 +1 x270 +1 x276 +1 x282 >= 9;
-1 x174 -1 x180 -1 x186 -1 x192 -1 x198 -1 x204 -1 x210 -1 x216 -1 x222 -1 x228 -1 x234 -1 x240 -1 x246 -1 x252 -1 x258 -1 x264 -1 x270 -1 x276 -1 x282 >= -10;
+1 x175 +1 x181 +1 x187 +1 x193 +1 x199 +1 x205 +1 x211 +1 x217 +1 x223 +1 x229 +1 x235 +1 x241 +1 x247 +1 x253 +1 x259 +1 x265 +1 x271 +1 x277 +1 x283 >= 9;
-1 x175 -1 x181 -1 x187 -1 x193 -1 x199 -1 x205 -1 x211 -1 x217 -1 x223 -1 x229 -1 x235 -1 x241 -1 x247 -1 x253 -1 x259 -1 x265 -1 x271 -1 x277 -1 x283 >= -10;
+1 x176 +1 x182 +1 x188 +1 x194 +1 x200 +1 x206 +1 x212 +1 x218 +1 x224 +1 x230 +1 x236 +1 x242 +1 x248 +1 x254 +1 x260 +1 x266 +1 x272 +1 x278 +1 x284 >= 9;
-1 x176 -1 x182 -1 x188 -1 x194 -1 x200 -1 x206 -1 x212 -1 x218 -1 x224 -1 x230 -1 x236 -1 x242 -1 x248 -1 x254 -1 x260 -1 x266 -1 x272 -1 x278 -1 x284 >= -10;
+1 x177 +1 x183 +1 x189 +1 x195 +1 x201 +1 x207 +1 x213 +1 x219 +1 x225 +1 x231 +1 x237 +1 x243 +1 x249 +1 x255 +1 x261 +1 x267 +1 x273 +1 x279 +1 x285 >= 9;
-1 x177 -1 x183 -1 x189 -1 x195 -1 x201 -1 x207 -1 x213 -1 x219 -1 x225 -1 x231 -1 x237 -1 x243 -1 x249 -1 x255 -1 x261 -1 x267 -1 x273 -1 x279 -1 x285 >= -10;
+1 x178 +1 x184 +1 x190 +1 x196 +1 x202 +1 x208 +1 x214 +1 x220 +1 x226 +1 x232 +1 x238 +1 x244 +1 x250 +1 x256 +1 x262 +1 x268 +1 x274 +1 x280 +1 x286 >= 9;
-1 x178 -1 x184 -1 x190 -1 x196 -1 x202 -1 x208 -1 x214 -1 x220 -1 x226 -1 x232 -1 x238 -1 x244 -1 x250 -1 x256 -1 x262 -1 x268 -1 x274 -1 x280 -1 x286 >= -10;
+1 x179 +1 x185 +1 x191 +1 x197 +1 x203 +1 x209 +1 x215 +1 x221 +1 x227 +1 x233 +1 x239 +1 x245 +1 x251 +1 x257 +1 x263 +1 x269 +1 x275 +1 x281 +1 x287 >= 9;
-1 x179 -1 x185 -1 x191 -1 x197 -1 x203 -1 x209 -1 x215 -1 x221 -1 x227 -1 x233 -1 x239 -1 x245 -1 x251 -1 x257 -1 x263 -1 x269 -1 x275 -1 x281 -1 x287 >= -10;
+1 x180 +1 x186 +1 x192 +1 x198 +1 x204 +1 x210 +1 x216 +1 x222 +1 x228 +1 x234 +1 x240 +1 x246 +1 x252 +1 x258 +1 x264 +1 x270 +1 x276 +1 x282 +1 x288 >= 9;
-1 x180 -1 x186 -1 x192 -1 x198 -1 x204 -1 x210 -1 x216 -1 x222 -1 x228 -1 x234 -1 x240 -1 x246 -1 x252 -1 x258 -1 x264 -1 x270 -1 x276 -1 x282 -1 x288 >= -10;
+1 x181 +1 x187 +1 x193 +1 x199 +1 x205 +1 x211 +1 x217 +1 x223 +1 x229 +1 x235 +1 x241 +1 x247 +1 x253 +1 x259 +1 x265 +1 x271 +1 x277 +1 x283 +1 x289 >= 9;
-1 x181 -1 x187 -1 x193 -1 x199 -1 x205 -1 x211 -1 x217 -1 x223 -1 x229 -1 x235 -1 x241 -1 x247 -1 x253 -1 x259 -1 x265 -1 x271 -1 x277 -1 x283 -1 x289 >= -10;
+1 x182 +1 x188 +1 x194 +1 x200 +1 x206 +1 x212 +1 x218 +1 x224 +1 x230 +1 x236 +1 x242 +1 x248 +1 x254 +1 x260 +1 x266 +1 x272 +1 x278 +1 x284 +1 x290 >= 9;
-1 x182 -1 x188 -1 x194 -1 x200 -1 x206 -1 x212 -1 x218 -1 x224 -1 x230 -1 x236 -1 x242 -1 x248 -1 x254 -1 x260 -1 x266 -1 x272 -1 x278 -1 x284 -1 x290 >= -10;
+1 x183 +1 x189 +1 x195 +1 x201 +1 x207 +1 x213 +1 x219 +1 x225 +1 x231 +1 x237 +1 x243 +1 x249 +1 x255 +1 x261 +1 x267 +1 x273 +1 x279 +1 x285 +1 x291 >= 9;
-1 x183 -1 x189 -1 x195 -1 x201 -1 x207 -1 x213 -1 x219 -1 x225 -1 x231 -1 x237 -1 x243 -1 x249 -1 x255 -1 x261 -1 x267 -1 x273 -1 x279 -1 x285 -1 x291 >= -10;
+1 x184 +1 x190 +1 x196 +1 x202 +1 x208 +1 x214 +1 x220 +1 x226 +1 x232 +1 x238 +1 x244 +1 x250 +1 x256 +1 x262 +1 x268 +1 x274 +1 x280 +1 x286 +1 x292 >= 9;
-1 x184 -1 x190 -1 x196 -1 x202 -1 x208 -1 x214 -1 x220 -1 x226 -1 x232 -1 x238 -1 x244 -1 x250 -1 x256 -1 x262 -1 x268 -1 x274 -1 x280 -1 x286 -1 x292 >= -10;
+1 x185 +1 x191 +1 x197 +1 x203 +1 x209 +1 x215 +1 x221 +1 x227 +1 x233 +1 x239 +1 x245 +1 x251 +1 x257 +1 x263 +1 x269 +1 x275 +1 x281 +1 x287 +1 x293 >= 9;
-1 x185 -1 x191 -1 x197 -1 x203 -1 x209 -1 x215 -1 x221 -1 x227 -1 x233 -1 x239 -1 x245 -1 x251 -1 x257 -1 x263 -1 x269 -1 x275 -1 x281 -1 x287 -1 x293 >= -10;
+1 x186 +1 x192 +1 x198 +1 x204 +1 x210 +1 x216 +1 x222 +1 x228 +1 x234 +1 x240 +1 x246 +1 x252 +1 x258 +1 x264 +1 x270 +1 x276 +1 x282 +1 x288 +1 x294 >= 9;
-1 x186 -1 x192 -1 x198 -1 x204 -1 x210 -1 x216 -1 x222 -1 x228 -1 x234 -1 x240 -1 x246 -1 x252 -1 x258 -1 x264 -1 x270 -1 x276 -1 x282 -1 x288 -1 x294 >= -10;
+1 x187 +1 x193 +1 x199 +1 x205 +1 x211 +1 x217 +1 x223 +1 x229 +1 x235 +1 x241 +1 x247 +1 x253 +1 x259 +1 x265 +1 x271 +1 x277 +1 x283 +1 x289 +1 x295 >= 9;
-1 x187 -1 x193 -1 x199 -1 x205 -1 x211 -1 x217 -1 x223 -1 x229 -1 x235 -1 x241 -1 x247 -1 x253 -1 x259 -1 x265 -1 x271 -1 x277 -1 x283 -1 x289 -1 x295 >= -10;
+1 x188 +1 x194 +1 x200 +1 x206 +1 x212 +1 x218 +1 x224 +1 x230 +1 x236 +1 x242 +1 x248 +1 x254 +1 x260 +1 x266 +1 x272 +1 x278 +1 x284 +1 x290 +1 x296 >= 9;
-1 x188 -1 x194 -1 x200 -1 x206 -1 x212 -1 x218 -1 x224 -1 x230 -1 x236 -1 x242 -1 x248 -1 x254 -1 x260 -1 x266 -1 x272 -1 x278 -1 x284 -1 x290 -1 x296 >= -10;
+1 x189 +1 x195 +1 x201 +1 x207 +1 x213 +1 x219 +1 x225 +1 x231 +1 x237 +1 x243 +1 x249 +1 x255 +1 x261 +1 x267 +1 x273 +1 x279 +1 x285 +1 x291 +1 x297 >= 9;
-1 x189 -1 x195 -1 x201 -1 x207 -1 x213 -1 x219 -1 x225 -1 x231 -1 x237 -1 x243 -1 x249 -1 x255 -1 x261 -1 x267 -1 x273 -1 x279 -1 x285 -1 x291 -1 x297 >= -10;
+1 x190 +1 x196 +1 x202 +1 x208 +1 x214 +1 x220 +1 x226 +1 x232 +1 x238 +1 x244 +1 x250 +1 x256 +1 x262 +1 x268 +1 x274 +1 x280 +1 x286 +1 x292 +1 x298 >= 9;
-1 x190 -1 x196 -1 x202 -1 x208 -1 x214 -1 x220 -1 x226 -1 x232 -1 x238 -1 x244 -1 x250 -1 x256 -1 x262 -1 x268 -1 x274 -1 x280 -1 x286 -1 x292 -1 x298 >= -10;
+1 x191 +1 x197 +1 x203 +1 x209 +1 x215 +1 x221 +1 x227 +1 x233 +1 x239 +1 x245 +1 x251 +1 x257 +1 x263 +1 x269 +1 x275 +1 x281 +1 x287 +1 x293 +1 x299 >= 9;
-1 x191 -1 x197 -1 x203 -1 x209 -1 x215 -1 x221 -1 x227 -1 x233 -1 x239 -1 x245 -1 x251 -1 x257 -1 x263 -1 x269 -1 x275 -1 x281 -1 x287 -1 x293 -1 x299 >= -10;
+1 x192 +1 x198 +1 x204 +1 x210 +1 x216 +1 x222 +1 x228 +1 x234 +1 x240 +1 x246 +1 x252 +1 x258 +1 x264 +1 x270 +1 x276 +1 x282 +1 x288 +1 x294 +1 x300 >= 9;
-1 x192 -1 x198 -1 x204 -1 x210 -1 x216 -1 x222 -1 x228 -1 x234 -1 x240 -1 x246 -1 x252 -1 x258 -1 x264 -1 x270 -1 x276 -1 x282 -1 x288 -1 x294 -1 x300 >= -10;
+1 x193 +1 x199 +1 x205 +1 x211 +1 x217 +1 x223 +1 x229 +1 x235 +1 x241 +1 x247 +1 x253 +1 x259 +1 x265 +1 x271 +1 x277 +1 x283 +1 x289 +1 x295 +1 x301 >= 9;
-1 x193 -1 x199 -1 x205 -1 x211 -1 x217 -1 x223 -1 x229 -1 x235 -1 x241 -1 x247 -1 x253 -1 x259 -1 x265 -1 x271 -1 x277 -1 x283 -1 x289 -1 x295 -1 x301 >= -10;
+1 x194 +1 x200 +1 x206 +1 x212 +1 x218 +1 x224 +1 x230 +1 x236 +1 x242 +1 x248 +1 x254 +1 x260 +1 x266 +1 x272 +1 x278 +1 x284 +1 x290 +1 x296 +1 x302 >= 9;
-1 x194 -1 x200 -1 x206 -1 x212 -1 x218 -1 x224 -1 x230 -1 x236 -1 x242 -1 x248 -1 x254 -1 x260 -1 x266 -1 x272 -1 x278 -1 x284 -1 x290 -1 x296 -1 x302 >= -10;
+1 x195 +1 x201 +1 x207 +1 x213 +1 x219 +1 x225 +1 x231 +1 x237 +1 x243 +1 x249 +1 x255 +1 x261 +1 x267 +1 x273 +1 x279 +1 x285 +1 x291 +1 x297 +1 x303 >= 9;
-1 x195 -1 x201 -1 x207 -1 x213 -1 x219 -1 x225 -1 x231 -1 x237 -1 x243 -1 x249 -1 x255 -1 x261 -1 x267 -1 x273 -1 x279 -1 x285 -1 x291 -1 x297 -1 x303 >= -10;
+1 x196 +1 x202 +1 x208 +1 x214 +1 x220 +1 x226 +1 x232 +1 x238 +1 x244 +1 x250 +1 x256 +1 x262 +1 x268 +1 x274 +1 x280 +1 x286 +1 x292 +1 x298 +1 x304 >= 9;
-1 x196 -1 x202 -1 x208 -1 x214 -1 x220 -1 x226 -1 x232 -1 x238 -1 x244 -1 x250 -1 x256 -1 x262 -1 x268 -1 x274 -1 x280 -1 x286 -1 x292 -1 x298 -1 x304 >= -10;
+1 x197 +1 x203 +1 x209 +1 x215 +1 x221 +1 x227 +1 x233 +1 x239 +1 x245 +1 x251 +1 x257 +1 x263 +1 x269 +1 x275 +1 x281 +1 x287 +1 x293 +1 x299 +1 x305 >= 9;
-1 x197 -1 x203 -1 x209 -1 x215 -1 x221 -1 x227 -1 x233 -1 x239 -1 x245 -1 x251 -1 x257 -1 x263 -1 x269 -1 x275 -1 x281 -1 x287 -1 x293 -1 x299 -1 x305 >= -10;
+1 x198 +1 x204 +1 x210 +1 x216 +1 x222 +1 x228 +1 x234 +1 x240 +1 x246 +1 x252 +1 x258 +1 x264 +1 x270 +1 x276 +1 x282 +1 x288 +1 x294 +1 x300 +1 x306 >= 9;
-1 x198 -1 x204 -1 x210 -1 x216 -1 x222 -1 x228 -1 x234 -1 x240 -1 x246 -1 x252 -1 x258 -1 x264 -1 x270 -1 x276 -1 x282 -1 x288 -1 x294 -1 x300 -1 x306 >= -10;
+1 x199 +1 x205 +1 x211 +1 x217 +1 x223 +1 x229 +1 x235 +1 x241 +1 x247 +1 x253 +1 x259 +1 x265 +1 x271 +1 x277 +1 x283 +1 x289 +1 x295 +1 x301 +1 x307 >= 9;
-1 x199 -1 x205 -1 x211 -1 x217 -1 x223 -1 x229 -1 x235 -1 x241 -1 x247 -1 x253 -1 x259 -1 x265 -1 x271 -1 x277 -1 x283 -1 x289 -1 x295 -1 x301 -1 x307 >= -10;
+1 x200 +1 x206 +1 x212 +1 x218 +1 x224 +1 x230 +1 x236 +1 x242 +1 x248 +1 x254 +1 x260 +1 x266 +1 x272 +1 x278 +1 x284 +1 x290 +1 x296 +1 x302 +1 x308 >= 9;
-1 x200 -1 x206 -1 x212 -1 x218 -1 x224 -1 x230 -1 x236 -1 x242 -1 x248 -1 x254 -1 x260 -1 x266 -1 x272 -1 x278 -1 x284 -1 x290 -1 x296 -1 x302 -1 x308 >= -10;
+1 x201 +1 x207 +1 x213 +1 x219 +1 x225 +1 x231 +1 x237 +1 x243 +1 x249 +1 x255 +1 x261 +1 x267 +1 x273 +1 x279 +1 x285 +1 x291 +1 x297 +1 x303 +1 x309 >= 9;
-1 x201 -1 x207 -1 x213 -1 x219 -1 x225 -1 x231 -1 x237 -1 x243 -1 x249 -1 x255 -1 x261 -1 x267 -1 x273 -1 x279 -1 x285 -1 x291 -1 x297 -1 x303 -1 x309 >= -10;
+1 x202 +1 x208 +1 x214 +1 x220 +1 x226 +1 x232 +1 x238 +1 x244 +1 x250 +1 x256 +1 x262 +1 x268 +1 x274 +1 x280 +1 x286 +1 x292 +1 x298 +1 x304 +1 x310 >= 9;
-1 x202 -1 x208 -1 x214 -1 x220 -1 x226 -1 x232 -1 x238 -1 x244 -1 x250 -1 x256 -1 x262 -1 x268 -1 x274 -1 x280 -1 x286 -1 x292 -1 x298 -1 x304 -1 x310 >= -10;
+1 x203 +1 x209 +1 x215 +1 x221 +1 x227 +1 x233 +1 x239 +1 x245 +1 x251 +1 x257 +1 x263 +1 x269 +1 x275 +1 x281 +1 x287 +1 x293 +1 x299 +1 x305 +1 x311 >= 9;
-1 x203 -1 x209 -1 x215 -1 x221 -1 x227 -1 x233 -1 x239 -1 x245 -1 x251 -1 x257 -1 x263 -1 x269 -1 x275 -1 x281 -1 x287 -1 x293 -1 x299 -1 x305 -1 x311 >= -10;
+1 x204 +1 x210 +1 x216 +1 x222 +1 x228 +1 x234 +1 x240 +1 x246 +1 x252 +1 x258 +1 x264 +1 x270 +1 x276 +1 x282 +1 x288 +1 x294 +1 x300 +1 x306 +1 x312 >= 9;
-1 x204 -1 x210 -1 x216 -1 x222 -1 x228 -1 x234 -1 x240 -1 x246 -1 x252 -1 x258 -1 x264 -1 x270 -1 x276 -1 x282 -1 x288 -1 x294 -1 x300 -1 x306 -1 x312 >= -10;
+1 x205 +1 x211 +1 x217 +1 x223 +1 x229 +1 x235 +1 x241 +1 x247 +1 x253 +1 x259 +1 x265 +1 x271 +1 x277 +1 x283 +1 x289 +1 x295 +1 x301 +1 x307 +1 x313 >= 9;
-1 x205 -1 x211 -1 x217 -1 x223 -1 x229 -1 x235 -1 x241 -1 x247 -1 x253 -1 x259 -1 x265 -1 x271 -1 x277 -1 x283 -1 x289 -1 x295 -1 x301 -1 x307 -1 x313 >= -10;
+1 x206 +1 x212 +1 x218 +1 x224 +1 x230 +1 x236 +1 x242 +1 x248 +1 x254 +1 x260 +1 x266 +1 x272 +1 x278 +1 x284 +1 x290 +1 x296 +1 x302 +1 x308 +1 x314 >= 9;
-1 x206 -1 x212 -1 x218 -1 x224 -1 x230 -1 x236 -1 x242 -1 x248 -1 x254 -1 x260 -1 x266 -1 x272 -1 x278 -1 x284 -1 x290 -1 x296 -1 x302 -1 x308 -1 x314 >= -10;
+1 x207 +1 x213 +1 x219 +1 x225 +1 x231 +1 x237 +1 x243 +1 x249 +1 x255 +1 x261 +1 x267 +1 x273 +1 x279 +1 x285 +1 x291 +1 x297 +1 x303 +1 x309 +1 x315 >= 9;
-1 x207 -1 x213 -1 x219 -1 x225 -1 x231 -1 x237 -1 x243 -1 x249 -1 x255 -1 x261 -1 x267 -1 x273 -1 x279 -1 x285 -1 x291 -1 x297 -1 x303 -1 x309 -1 x315 >= -10;
+1 x208 +1 x214 +1 x220 +1 x226 +1 x232 +1 x238 +1 x244 +1 x250 +1 x256 +1 x262 +1 x268 +1 x274 +1 x280 +1 x286 +1 x292 +1 x298 +1 x304 +1 x310 +1 x316 >= 9;
-1 x208 -1 x214 -1 x220 -1 x226 -1 x232 -1 x238 -1 x244 -1 x250 -1 x256 -1 x262 -1 x268 -1 x274 -1 x280 -1 x286 -1 x292 -1 x298 -1 x304 -1 x310 -1 x316 >= -10;
+1 x209 +1 x215 +1 x221 +1 x227 +1 x233 +1 x239 +1 x245 +1 x251 +1 x257 +1 x263 +1 x269 +1 x275 +1 x281 +1 x287 +1 x293 +1 x299 +1 x305 +1 x311 +1 x317 >= 9;
-1 x209 -1 x215 -1 x221 -1 x227 -1 x233 -1 x239 -1 x245 -1 x251 -1 x257 -1 x263 -1 x269 -1 x275 -1 x281 -1 x287 -1 x293 -1 x299 -1 x305 -1 x311 -1 x317 >= -10;
+1 x210 +1 x216 +1 x222 +1 x228 +1 x234 +1 x240 +1 x246 +1 x252 +1 x258 +1 x264 +1 x270 +1 x276 +1 x282 +1 x288 +1 x294 +1 x300 +1 x306 +1 x312 +1 x318 >= 9;
-1 x210 -1 x216 -1 x222 -1 x228 -1 x234 -1 x240 -1 x246 -1 x252 -1 x258 -1 x264 -1 x270 -1 x276 -1 x282 -1 x288 -1 x294 -1 x300 -1 x306 -1 x312 -1 x318 >= -10;
+1 x211 +1 x217 +1 x223 +1 x229 +1 x235 +1 x241 +1 x247 +1 x253 +1 x259 +1 x265 +1 x271 +1 x277 +1 x283 +1 x289 +1 x295 +1 x301 +1 x307 +1 x313 +1 x319 >= 9;
-1 x211 -1 x217 -1 x223 -1 x229 -1 x235 -1 x241 -1 x247 -1 x253 -1 x259 -1 x265 -1 x271 -1 x277 -1 x283 -1 x289 -1 x295 -1 x301 -1 x307 -1 x313 -1 x319 >= -10;
+1 x212 +1 x218 +1 x224 +1 x230 +1 x236 +1 x242 +1 x248 +1 x254 +1 x260 +1 x266 +1 x272 +1 x278 +1 x284 +1 x290 +1 x296 +1 x302 +1 x308 +1 x314 +1 x320 >= 9;
-1 x212 -1 x218 -1 x224 -1 x230 -1 x236 -1 x242 -1 x248 -1 x254 -1 x260 -1 x266 -1 x272 -1 x278 -1 x284 -1 x290 -1 x296 -1 x302 -1 x308 -1 x314 -1 x320 >= -10;
+1 x213 +1 x219 +1 x225 +1 x231 +1 x237 +1 x243 +1 x249 +1 x255 +1 x261 +1 x267 +1 x273 +1 x279 +1 x285 +1 x291 +1 x297 +1 x303 +1 x309 +1 x315 +1 x321 >= 9;
-1 x213 -1 x219 -1 x225 -1 x231 -1 x237 -1 x243 -1 x249 -1 x255 -1 x261 -1 x267 -1 x273 -1 x279 -1 x285 -1 x291 -1 x297 -1 x303 -1 x309 -1 x315 -1 x321 >= -10;
+1 x214 +1 x220 +1 x226 +1 x232 +1 x238 +1 x244 +1 x250 +1 x256 +1 x262 +1 x268 +1 x274 +1 x280 +1 x286 +1 x292 +1 x298 +1 x304 +1 x310 +1 x316 +1 x322 >= 9;
-1 x214 -1 x220 -1 x226 -1 x232 -1 x238 -1 x244 -1 x250 -1 x256 -1 x262 -1 x268 -1 x274 -1 x280 -1 x286 -1 x292 -1 x298 -1 x304 -1 x310 -1 x316 -1 x322 >= -10;
+1 x215 +1 x221 +1 x227 +1 x233 +1 x239 +1 x245 +1 x251 +1 x257 +1 x263 +1 x269 +1 x275 +1 x281 +1 x287 +1 x293 +1 x299 +1 x305 +1 x311 +1 x317 +1 x323 >= 9;
-1 x215 -1 x221 -1 x227 -1 x233 -1 x239 -1 x245 -1 x251 -1 x257 -1 x263 -1 x269 -1 x275 -1 x281 -1 x287 -1 x293 -1 x299 -1 x305 -1 x311 -1 x317 -1 x323 >= -10;
+1 x216 +1 x222 +1 x228 +1 x234 +1 x240 +1 x246 +1 x252 +1 x258 +1 x264 +1 x270 +1 x276 +1 x282 +1 x288 +1 x294 +1 x300 +1 x306 +1 x312 +1 x318 +1 x324 >= 9;
-1 x216 -1 x222 -1 x228 -1 x234 -1 x240 -1 x246 -1 x252 -1 x258 -1 x264 -1 x270 -1 x276 -1 x282 -1 x288 -1 x294 -1 x300 -1 x306 -1 x312 -1 x318 -1 x324 >= -10;
+1 x217 +1 x223 +1 x229 +1 x235 +1 x241 +1 x247 +1 x253 +1 x259 +1 x265 +1 x271 +1 x277 +1 x283 +1 x289 +1 x295 +1 x301 +1 x307 +1 x313 +1 x319 +1 x325 >= 9;
-1 x217 -1 x223 -1 x229 -1 x235 -1 x241 -1 x247 -1 x253 -1 x259 -1 x265 -1 x271 -1 x277 -1 x283 -1 x289 -1 x295 -1 x301 -1 x307 -1 x313 -1 x319 -1 x325 >= -10;
+1 x218 +1 x224 +1 x230 +1 x236 +1 x242 +1 x248 +1 x254 +1 x260 +1 x266 +1 x272 +1 x278 +1 x284 +1 x290 +1 x296 +1 x302 +1 x308 +1 x314 +1 x320 +1 x326 >= 9;
-1 x218 -1 x224 -1 x230 -1 x236 -1 x242 -1 x248 -1 x254 -1 x260 -1 x266 -1 x272 -1 x278 -1 x284 -1 x290 -1 x296 -1 x302 -1 x308 -1 x314 -1 x320 -1 x326 >= -10;
+1 x219 +1 x225 +1 x231 +1 x237 +1 x243 +1 x249 +1 x255 +1 x261 +1 x267 +1 x273 +1 x279 +1 x285 +1 x291 +1 x297 +1 x303 +1 x309 +1 x315 +1 x321 +1 x327 >= 9;
-1 x219 -1 x225 -1 x231 -1 x237 -1 x243 -1 x249 -1 x255 -1 x261 -1 x267 -1 x273 -1 x279 -1 x285 -1 x291 -1 x297 -1 x303 -1 x309 -1 x315 -1 x321 -1 x327 >= -10;
+1 x220 +1 x226 +1 x232 +1 x238 +1 x244 +1 x250 +1 x256 +1 x262 +1 x268 +1 x274 +1 x280 +1 x286 +1 x292 +1 x298 +1 x304 +1 x310 +1 x316 +1 x322 +1 x328 >= 9;
-1 x220 -1 x226 -1 x232 -1 x238 -1 x244 -1 x250 -1 x256 -1 x262 -1 x268 -1 x274 -1 x280 -1 x286 -1 x292 -1 x298 -1 x304 -1 x310 -1 x316 -1 x322 -1 x328 >= -10;
+1 x221 +1 x227 +1 x233 +1 x239 +1 x245 +1 x251 +1 x257 +1 x263 +1 x269 +1 x275 +1 x281 +1 x287 +1 x293 +1 x299 +1 x305 +1 x311 +1 x317 +1 x323 +1 x329 >= 9;
-1 x221 -1 x227 -1 x233 -1 x239 -1 x245 -1 x251 -1 x257 -1 x263 -1 x269 -1 x275 -1 x281 -1 x287 -1 x293 -1 x299 -1 x305 -1 x311 -1 x317 -1 x323 -1 x329 >= -10;
+1 x222 +1 x228 +1 x234 +1 x240 +1 x246 +1 x252 +1 x258 +1 x264 +1 x270 +1 x276 +1 x282 +1 x288 +1 x294 +1 x300 +1 x306 +1 x312 +1 x318 +1 x324 +1 x330 >= 9;
-1 x222 -1 x228 -1 x234 -1 x240 -1 x246 -1 x252 -1 x258 -1 x264 -1 x270 -1 x276 -1 x282 -1 x288 -1 x294 -1 x300 -1 x306 -1 x312 -1 x318 -1 x324 -1 x330 >= -10;
+1 x223 +1 x229 +1 x235 +1 x241 +1 x247 +1 x253 +1 x259 +1 x265 +1 x271 +1 x277 +1 x283 +1 x289 +1 x295 +1 x301 +1 x307 +1 x313 +1 x319 +1 x325 +1 x331 >= 9;
-1 x223 -1 x229 -1 x235 -1 x241 -1 x247 -1 x253 -1 x259 -1 x265 -1 x271 -1 x277 -1 x283 -1 x289 -1 x295 -1 x301 -1 x307 -1 x313 -1 x319 -1 x325 -1 x331 >= -10;
+1 x224 +1 x230 +1 x236 +1 x242 +1 x248 +1 x254 +1 x260 +1 x266 +1 x272 +1 x278 +1 x284 +1 x290 +1 x296 +1 x302 +1 x308 +1 x314 +1 x320 +1 x326 +1 x332 >= 9;
-1 x224 -1 x230 -1 x236 -1 x242 -1 x248 -1 x254 -1 x260 -1 x266 -1 x272 -1 x278 -1 x284 -1 x290 -1 x296 -1 x302 -1 x308 -1 x314 -1 x320 -1 x326 -1 x332 >= -10;
+1 x225 +1 x231 +1 x237 +1 x243 +1 x249 +1 x255 +1 x261 +1 x267 +1 x273 +1 x279 +1 x285 +1 x291 +1 x297 +1 x303 +1 x309 +1 x315 +1 x321 +1 x327 +1 x333 >= 9;
-1 x225 -1 x231 -1 x237 -1 x243 -1 x249 -1 x255 -1 x261 -1 x267 -1 x273 -1 x279 -1 x285 -1 x291 -1 x297 -1 x303 -1 x309 -1 x315 -1 x321 -1 x327 -1 x333 >= -10;
+1 x226 +1 x232 +1 x238 +1 x244 +1 x250 +1 x256 +1 x262 +1 x268 +1 x274 +1 x280 +1 x286 +1 x292 +1 x298 +1 x304 +1 x310 +1 x316 +1 x322 +1 x328 +1 x334 >= 9;
-1 x226 -1 x232 -1 x238 -1 x244 -1 x250 -1 x256 -1 x262 -1 x268 -1 x274 -1 x280 -1 x286 -1 x292 -1 x298 -1 x304 -1 x310 -1 x316 -1 x322 -1 x328 -1 x334 >= -10;
+1 x227 +1 x233 +1 x239 +1 x245 +1 x251 +1 x257 +1 x263 +1 x269 +1 x275 +1 x281 +1 x287 +1 x293 +1 x299 +1 x305 +1 x311 +1 x317 +1 x323 +1 x329 +1 x335 >= 9;
-1 x227 -1 x233 -1 x239 -1 x245 -1 x251 -1 x257 -1 x263 -1 x269 -1 x275 -1 x281 -1 x287 -1 x293 -1 x299 -1 x305 -1 x311 -1 x317 -1 x323 -1 x329 -1 x335 >= -10;
+1 x228 +1 x234 +1 x240 +1 x246 +1 x252 +1 x258 +1 x264 +1 x270 +1 x276 +1 x282 +1 x288 +1 x294 +1 x300 +1 x306 +1 x312 +1 x318 +1 x324 +1 x330 +1 x336 >= 9;
-1 x228 -1 x234 -1 x240 -1 x246 -1 x252 -1 x258 -1 x264 -1 x270 -1 x276 -1 x282 -1 x288 -1 x294 -1 x300 -1 x306 -1 x312 -1 x318 -1 x324 -1 x330 -1 x336 >= -10;
+1 x229 +1 x235 +1 x241 +1 x247 +1 x253 +1 x259 +1 x265 +1 x271 +1 x277 +1 x283 +1 x289 +1 x295 +1 x301 +1 x307 +1 x313 +1 x319 +1 x325 +1 x331 +1 x337 >= 9;
-1 x229 -1 x235 -1 x241 -1 x247 -1 x253 -1 x259 -1 x265 -1 x271 -1 x277 -1 x283 -1 x289 -1 x295 -1 x301 -1 x307 -1 x313 -1 x319 -1 x325 -1 x331 -1 x337 >= -10;
+1 x230 +1 x236 +1 x242 +1 x248 +1 x254 +1 x260 +1 x266 +1 x272 +1 x278 +1 x284 +1 x290 +1 x296 +1 x302 +1 x308 +1 x314 +1 x320 +1 x326 +1 x332 +1 x338 >= 9;
-1 x230 -1 x236 -1 x242 -1 x248 -1 x254 -1 x260 -1 x266 -1 x272 -1 x278 -1 x284 -1 x290 -1 x296 -1 x302 -1 x308 -1 x314 -1 x320 -1 x326 -1 x332 -1 x338 >= -10;
+1 x231 +1 x237 +1 x243 +1 x249 +1 x255 +1 x261 +1 x267 +1 x273 +1 x279 +1 x285 +1 x291 +1 x297 +1 x303 +1 x309 +1 x315 +1 x321 +1 x327 +1 x333 +1 x339 >= 9;
-1 x231 -1 x237 -1 x243 -1 x249 -1 x255 -1 x261 -1 x267 -1 x273 -1 x279 -1 x285 -1 x291 -1 x297 -1 x303 -1 x309 -1 x315 -1 x321 -1 x327 -1 x333 -1 x339 >= -10;
+1 x232 +1 x238 +1 x244 +1 x250 +1 x256 +1 x262 +1 x268 +1 x274 +1 x280 +1 x286 +1 x292 +1 x298 +1 x304 +1 x310 +1 x316 +1 x322 +1 x328 +1 x334 +1 x340 >= 9;
-1 x232 -1 x238 -1 x244 -1 x250 -1 x256 -1 x262 -1 x268 -1 x274 -1 x280 -1 x286 -1 x292 -1 x298 -1 x304 -1 x310 -1 x316 -1 x322 -1 x328 -1 x334 -1 x340 >= -10;
+1 x233 +1 x239 +1 x245 +1 x251 +1 x257 +1 x263 +1 x269 +1 x275 +1 x281 +1 x287 +1 x293 +1 x299 +1 x305 +1 x311 +1 x317 +1 x323 +1 x329 +1 x335 +1 x341 >= 9;
-1 x233 -1 x239 -1 x245 -1 x251 -1 x257 -1 x263 -1 x269 -1 x275 -1 x281 -1 x287 -1 x293 -1 x299 -1 x305 -1 x311 -1 x317 -1 x323 -1 x329 -1 x335 -1 x341 >= -10;
+1 x234 +1 x240 +1 x246 +1 x252 +1 x258 +1 x264 +1 x270 +1 x276 +1 x282 +1 x288 +1 x294 +1 x300 +1 x306 +1 x312 +1 x318 +1 x324 +1 x330 +1 x336 +1 x342 >= 9;
-1 x234 -1 x240 -1 x246 -1 x252 -1 x258 -1 x264 -1 x270 -1 x276 -1 x282 -1 x288 -1 x294 -1 x300 -1 x306 -1 x312 -1 x318 -1 x324 -1 x330 -1 x336 -1 x342 >= -10;
+1 x235 +1 x241 +1 x247 +1 x253 +1 x259 +1 x265 +1 x271 +1 x277 +1 x283 +1 x289 +1 x295 +1 x301 +1 x307 +1 x313 +1 x319 +1 x325 +1 x331 +1 x337 +1 x343 >= 9;
-1 x235 -1 x241 -1 x247 -1 x253 -1 x259 -1 x265 -1 x271 -1 x277 -1 x283 -1 x289 -1 x295 -1 x301 -1 x307 -1 x313 -1 x319 -1 x325 -1 x331 -1 x337 -1 x343 >= -10;
+1 x236 +1 x242 +1 x248 +1 x254 +1 x260 +1 x266 +1 x272 +1 x278 +1 x284 +1 x290 +1 x296 +1 x302 +1 x308 +1 x314 +1 x320 +1 x326 +1 x332 +1 x338 +1 x344 >= 9;
-1 x236 -1 x242 -1 x248 -1 x254 -1 x260 -1 x266 -1 x272 -1 x278 -1 x284 -1 x290 -1 x296 -1 x302 -1 x308 -1 x314 -1 x320 -1 x326 -1 x332 -1 x338 -1 x344 >= -10;
+1 x1 +1 x8 +1 x15 +1 x22 +1 x29 +1 x36 +1 x43 +1 x50 +1 x57 +1 x64 +1 x71 +1 x78 +1 x85 +1 x92 +1 x99 +1 x106 +1 x113 +1 x120 +1 x127 >= 9;
-1 x1 -1 x8 -1 x15 -1 x22 -1 x29 -1 x36 -1 x43 -1 x50 -1 x57 -1 x64 -1 x71 -1 x78 -1 x85 -1 x92 -1 x99 -1 x106 -1 x113 -1 x120 -1 x127 >= -10;
+1 x2 +1 x9 +1 x16 +1 x23 +1 x30 +1 x37 +1 x44 +1 x51 +1 x58 +1 x65 +1 x72 +1 x79 +1 x86 +1 x93 +1 x100 +1 x107 +1 x114 +1 x121 +1 x128 >= 9;
-1 x2 -1 x9 -1 x16 -1 x23 -1 x30 -1 x37 -1 x44 -1 x51 -1 x58 -1 x65 -1 x72 -1 x79 -1 x86 -1 x93 -1 x100 -1 x107 -1 x114 -1 x121 -1 x128 >= -10;
+1 x3 +1 x10 +1 x17 +1 x24 +1 x31 +1 x38 +1 x45 +1 x52 +1 x59 +1 x66 +1 x73 +1 x80 +1 x87 +1 x94 +1 x101 +1 x108 +1 x115 +1 x122 +1 x129 >= 9;
-1 x3 -1 x10 -1 x17 -1 x24 -1 x31 -1 x38 -1 x45 -1 x52 -1 x59 -1 x66 -1 x73 -1 x80 -1 x87 -1 x94 -1 x101 -1 x108 -1 x115 -1 x122 -1 x129 >= -10;
+1 x4 +1 x11 +1 x18 +1 x25 +1 x32 +1 x39 +1 x46 +1 x53 +1 x60 +1 x67 +1 x74 +1 x81 +1 x88 +1 x95 +1 x102 +1 x109 +1 x116 +1 x123 +1 x130 >= 9;
-1 x4 -1 x11 -1 x18 -1 x25 -1 x32 -1 x39 -1 x46 -1 x53 -1 x60 -1 x67 -1 x74 -1 x81 -1 x88 -1 x95 -1 x102 -1 x109 -1 x116 -1 x123 -1 x130 >= -10;
+1 x5 +1 x12 +1 x19 +1 x26 +1 x33 +1 x40 +1 x47 +1 x54 +1 x61 +1 x68 +1 x75 +1 x82 +1 x89 +1 x96 +1 x103 +1 x110 +1 x117 +1 x124 +1 x131 >= 9;
-1 x5 -1 x12 -1 x19 -1 x26 -1 x33 -1 x40 -1 x47 -1 x54 -1 x61 -1 x68 -1 x75 -1 x82 -1 x89 -1 x96 -1 x103 -1 x110 -1 x117 -1 x124 -1 x131 >= -10;
+1 x6 +1 x13 +1 x20 +1 x27 +1 x34 +1 x41 +1 x48 +1 x55 +1 x62 +1 x69 +1 x76 +1 x83 +1 x90 +1 x97 +1 x104 +1 x111 +1 x118 +1 x125 +1 x132 >= 9;
-1 x6 -1 x13 -1 x20 -1 x27 -1 x34 -1 x41 -1 x48 -1 x55 -1 x62 -1 x69 -1 x76 -1 x83 -1 x90 -1 x97 -1 x104 -1 x111 -1 x118 -1 x125 -1 x132 >= -10;
+1 x7 +1 x14 +1 x21 +1 x28 +1 x35 +1 x42 +1 x49 +1 x56 +1 x63 +1 x70 +1 x77 +1 x84 +1 x91 +1 x98 +1 x105 +1 x112 +1 x119 +1 x126 +1 x133 >= 9;
-1 x7 -1 x14 -1 x21 -1 x28 -1 x35 -1 x42 -1 x49 -1 x56 -1 x63 -1 x70 -1 x77 -1 x84 -1 x91 -1 x98 -1 x105 -1 x112 -1 x119 -1 x126 -1 x133 >= -10;
+1 x8 +1 x15 +1 x22 +1 x29 +1 x36 +1 x43 +1 x50 +1 x57 +1 x64 +1 x71 +1 x78 +1 x85 +1 x92 +1 x99 +1 x106 +1 x113 +1 x120 +1 x127 +1 x134 >= 9;
-1 x8 -1 x15 -1 x22 -1 x29 -1 x36 -1 x43 -1 x50 -1 x57 -1 x64 -1 x71 -1 x78 -1 x85 -1 x92 -1 x99 -1 x106 -1 x113 -1 x120 -1 x127 -1 x134 >= -10;
+1 x9 +1 x16 +1 x23 +1 x30 +1 x37 +1 x44 +1 x51 +1 x58 +1 x65 +1 x72 +1 x79 +1 x86 +1 x93 +1 x100 +1 x107 +1 x114 +1 x121 +1 x128 +1 x135 >= 9;
-1 x9 -1 x16 -1 x23 -1 x30 -1 x37 -1 x44 -1 x51 -1 x58 -1 x65 -1 x72 -1 x79 -1 x86 -1 x93 -1 x100 -1 x107 -1 x114 -1 x121 -1 x128 -1 x135 >= -10;
+1 x10 +1 x17 +1 x24 +1 x31 +1 x38 +1 x45 +1 x52 +1 x59 +1 x66 +1 x73 +1 x80 +1 x87 +1 x94 +1 x101 +1 x108 +1 x115 +1 x122 +1 x129 +1 x136 >= 9;
-1 x10 -1 x17 -1 x24 -1 x31 -1 x38 -1 x45 -1 x52 -1 x59 -1 x66 -1 x73 -1 x80 -1 x87 -1 x94 -1 x101 -1 x108 -1 x115 -1 x122 -1 x129 -1 x136 >= -10;
+1 x11 +1 x18 +1 x25 +1 x32 +1 x39 +1 x46 +1 x53 +1 x60 +1 x67 +1 x74 +1 x81 +1 x88 +1 x95 +1 x102 +1 x109 +1 x116 +1 x123 +1 x130 +1 x137 >= 9;
-1 x11 -1 x18 -1 x25 -1 x32 -1 x39 -1 x46 -1 x53 -1 x60 -1 x67 -1 x74 -1 x81 -1 x88 -1 x95 -1 x102 -1 x109 -1 x116 -1 x123 -1 x130 -1 x137 >= -10;
+1 x12 +1 x19 +1 x26 +1 x33 +1 x40 +1 x47 +1 x54 +1 x61 +1 x68 +1 x75 +1 x82 +1 x89 +1 x96 +1 x103 +1 x110 +1 x117 +1 x124 +1 x131 +1 x138 >= 9;
-1 x12 -1 x19 -1 x26 -1 x33 -1 x40 -1 x47 -1 x54 -1 x61 -1 x68 -1 x75 -1 x82 -1 x89 -1 x96 -1 x103 -1 x110 -1 x117 -1 x124 -1 x131 -1 x138 >= -10;
+1 x13 +1 x20 +1 x27 +1 x34 +1 x41 +1 x48 +1 x55 +1 x62 +1 x69 +1 x76 +1 x83 +1 x90 +1 x97 +1 x104 +1 x111 +1 x118 +1 x125 +1 x132 +1 x139 >= 9;
-1 x13 -1 x20 -1 x27 -1 x34 -1 x41 -1 x48 -1 x55 -1 x62 -1 x69 -1 x76 -1 x83 -1 x90 -1 x97 -1 x104 -1 x111 -1 x118 -1 x125 -1 x132 -1 x139 >= -10;
+1 x14 +1 x21 +1 x28 +1 x35 +1 x42 +1 x49 +1 x56 +1 x63 +1 x70 +1 x77 +1 x84 +1 x91 +1 x98 +1 x105 +1 x112 +1 x119 +1 x126 +1 x133 +1 x140 >= 9;
-1 x14 -1 x21 -1 x28 -1 x35 -1 x42 -1 x49 -1 x56 -1 x63 -1 x70 -1 x77 -1 x84 -1 x91 -1 x98 -1 x105 -1 x112 -1 x119 -1 x126 -1 x133 -1 x140 >= -10;
+1 x15 +1 x22 +1 x29 +1 x36 +1 x43 +1 x50 +1 x57 +1 x64 +1 x71 +1 x78 +1 x85 +1 x92 +1 x99 +1 x106 +1 x113 +1 x120 +1 x127 +1 x134 +1 x141 >= 9;
-1 x15 -1 x22 -1 x29 -1 x36 -1 x43 -1 x50 -1 x57 -1 x64 -1 x71 -1 x78 -1 x85 -1 x92 -1 x99 -1 x106 -1 x113 -1 x120 -1 x127 -1 x134 -1 x141 >= -10;
+1 x16 +1 x23 +1 x30 +1 x37 +1 x44 +1 x51 +1 x58 +1 x65 +1 x72 +1 x79 +1 x86 +1 x93 +1 x100 +1 x107 +1 x114 +1 x121 +1 x128 +1 x135 +1 x142 >= 9;
-1 x16 -1 x23 -1 x30 -1 x37 -1 x44 -1 x51 -1 x58 -1 x65 -1 x72 -1 x79 -1 x86 -1 x93 -1 x100 -1 x107 -1 x114 -1 x121 -1 x128 -1 x135 -1 x142 >= -10;
+1 x17 +1 x24 +1 x31 +1 x38 +1 x45 +1 x52 +1 x59 +1 x66 +1 x73 +1 x80 +1 x87 +1 x94 +1 x101 +1 x108 +1 x115 +1 x122 +1 x129 +1 x136 +1 x143 >= 9;
-1 x17 -1 x24 -1 x31 -1 x38 -1 x45 -1 x52 -1 x59 -1 x66 -1 x73 -1 x80 -1 x87 -1 x94 -1 x101 -1 x108 -1 x115 -1 x122 -1 x129 -1 x136 -1 x143 >= -10;
+1 x18 +1 x25 +1 x32 +1 x39 +1 x46 +1 x53 +1 x60 +1 x67 +1 x74 +1 x81 +1 x88 +1 x95 +1 x102 +1 x109 +1 x116 +1 x123 +1 x130 +1 x137 +1 x144 >= 9;
-1 x18 -1 x25 -1 x32 -1 x39 -1 x46 -1 x53 -1 x60 -1 x67 -1 x74 -1 x81 -1 x88 -1 x95 -1 x102 -1 x109 -1 x116 -1 x123 -1 x130 -1 x137 -1 x144 >= -10;
+1 x19 +1 x26 +1 x33 +1 x40 +1 x47 +1 x54 +1 x61 +1 x68 +1 x75 +1 x82 +1 x89 +1 x96 +1 x103 +1 x110 +1 x117 +1 x124 +1 x131 +1 x138 +1 x145 >= 9;
-1 x19 -1 x26 -1 x33 -1 x40 -1 x47 -1 x54 -1 x61 -1 x68 -1 x75 -1 x82 -1 x89 -1 x96 -1 x103 -1 x110 -1 x117 -1 x124 -1 x131 -1 x138 -1 x145 >= -10;
+1 x20 +1 x27 +1 x34 +1 x41 +1 x48 +1 x55 +1 x62 +1 x69 +1 x76 +1 x83 +1 x90 +1 x97 +1 x104 +1 x111 +1 x118 +1 x125 +1 x132 +1 x139 +1 x146 >= 9;
-1 x20 -1 x27 -1 x34 -1 x41 -1 x48 -1 x55 -1 x62 -1 x69 -1 x76 -1 x83 -1 x90 -1 x97 -1 x104 -1 x111 -1 x118 -1 x125 -1 x132 -1 x139 -1 x146 >= -10;
+1 x21 +1 x28 +1 x35 +1 x42 +1 x49 +1 x56 +1 x63 +1 x70 +1 x77 +1 x84 +1 x91 +1 x98 +1 x105 +1 x112 +1 x119 +1 x126 +1 x133 +1 x140 +1 x147 >= 9;
-1 x21 -1 x28 -1 x35 -1 x42 -1 x49 -1 x56 -1 x63 -1 x70 -1 x77 -1 x84 -1 x91 -1 x98 -1 x105 -1 x112 -1 x119 -1 x126 -1 x133 -1 x140 -1 x147 >= -10;
+1 x22 +1 x29 +1 x36 +1 x43 +1 x50 +1 x57 +1 x64 +1 x71 +1 x78 +1 x85 +1 x92 +1 x99 +1 x106 +1 x113 +1 x120 +1 x127 +1 x134 +1 x141 +1 x148 >= 9;
-1 x22 -1 x29 -1 x36 -1 x43 -1 x50 -1 x57 -1 x64 -1 x71 -1 x78 -1 x85 -1 x92 -1 x99 -1 x106 -1 x113 -1 x120 -1 x127 -1 x134 -1 x141 -1 x148 >= -10;
+1 x23 +1 x30 +1 x37 +1 x44 +1 x51 +1 x58 +1 x65 +1 x72 +1 x79 +1 x86 +1 x93 +1 x100 +1 x107 +1 x114 +1 x121 +1 x128 +1 x135 +1 x142 +1 x149 >= 9;
-1 x23 -1 x30 -1 x37 -1 x44 -1 x51 -1 x58 -1 x65 -1 x72 -1 x79 -1 x86 -1 x93 -1 x100 -1 x107 -1 x114 -1 x121 -1 x128 -1 x135 -1 x142 -1 x149 >= -10;
+1 x24 +1 x31 +1 x38 +1 x45 +1 x52 +1 x59 +1 x66 +1 x73 +1 x80 +1 x87 +1 x94 +1 x101 +1 x108 +1 x115 +1 x122 +1 x129 +1 x136 +1 x143 +1 x150 >= 9;
-1 x24 -1 x31 -1 x38 -1 x45 -1 x52 -1 x59 -1 x66 -1 x73 -1 x80 -1 x87 -1 x94 -1 x101 -1 x108 -1 x115 -1 x122 -1 x129 -1 x136 -1 x143 -1 x150 >= -10;
+1 x25 +1 x32 +1 x39 +1 x46 +1 x53 +1 x60 +1 x67 +1 x74 +1 x81 +1 x88 +1 x95 +1 x102 +1 x109 +1 x116 +1 x123 +1 x130 +1 x137 +1 x144 +1 x151 >= 9;
-1 x25 -1 x32 -1 x39 -1 x46 -1 x53 -1 x60 -1 x67 -1 x74 -1 x81 -1 x88 -1 x95 -1 x102 -1 x109 -1 x116 -1 x123 -1 x130 -1 x137 -1 x144 -1 x151 >= -10;
+1 x26 +1 x33 +1 x40 +1 x47 +1 x54 +1 x61 +1 x68 +1 x75 +1 x82 +1 x89 +1 x96 +1 x103 +1 x110 +1 x117 +1 x124 +1 x131 +1 x138 +1 x145 +1 x152 >= 9;
-1 x26 -1 x33 -1 x40 -1 x47 -1 x54 -1 x61 -1 x68 -1 x75 -1 x82 -1 x89 -1 x96 -1 x103 -1 x110 -1 x117 -1 x124 -1 x131 -1 x138 -1 x145 -1 x152 >= -10;
+1 x27 +1 x34 +1 x41 +1 x48 +1 x55 +1 x62 +1 x69 +1 x76 +1 x83 +1 x90 +1 x97 +1 x104 +1 x111 +1 x118 +1 x125 +1 x132 +1 x139 +1 x146 +1 x153 >= 9;
-1 x27 -1 x34 -1 x41 -1 x48 -1 x55 -1 x62 -1 x69 -1 x76 -1 x83 -1 x90 -1 x97 -1 x104 -1 x111 -1 x118 -1 x125 -1 x132 -1 x139 -1 x146 -1 x153 >= -10;
+1 x28 +1 x35 +1 x42 +1 x49 +1 x56 +1 x63 +1 x70 +1 x77 +1 x84 +1 x91 +1 x98 +1 x105 +1 x112 +1 x119 +1 x126 +1 x133 +1 x140 +1 x147 +1 x154 >= 9;
-1 x28 -1 x35 -1 x42 -1 x49 -1 x56 -1 x63 -1 x70 -1 x77 -1 x84 -1 x91 -1 x98 -1 x105 -1 x112 -1 x119 -1 x126 -1 x133 -1 x140 -1 x147 -1 x154 >= -10;
+1 x29 +1 x36 +1 x43 +1 x50 +1 x57 +1 x64 +1 x71 +1 x78 +1 x85 +1 x92 +1 x99 +1 x106 +1 x113 +1 x120 +1 x127 +1 x134 +1 x141 +1 x148 +1 x155 >= 9;
-1 x29 -1 x36 -1 x43 -1 x50 -1 x57 -1 x64 -1 x71 -1 x78 -1 x85 -1 x92 -1 x99 -1 x106 -1 x113 -1 x120 -1 x127 -1 x134 -1 x141 -1 x148 -1 x155 >= -10;
+1 x30 +1 x37 +1 x44 +1 x51 +1 x58 +1 x65 +1 x72 +1 x79 +1 x86 +1 x93 +1 x100 +1 x107 +1 x114 +1 x121 +1 x128 +1 x135 +1 x142 +1 x149 +1 x156 >= 9;
-1 x30 -1 x37 -1 x44 -1 x51 -1 x58 -1 x65 -1 x72 -1 x79 -1 x86 -1 x93 -1 x100 -1 x107 -1 x114 -1 x121 -1 x128 -1 x135 -1 x142 -1 x149 -1 x156 >= -10;
+1 x31 +1 x38 +1 x45 +1 x52 +1 x59 +1 x66 +1 x73 +1 x80 +1 x87 +1 x94 +1 x101 +1 x108 +1 x115 +1 x122 +1 x129 +1 x136 +1 x143 +1 x150 +1 x157 >= 9;
-1 x31 -1 x38 -1 x45 -1 x52 -1 x59 -1 x66 -1 x73 -1 x80 -1 x87 -1 x94 -1 x101 -1 x108 -1 x115 -1 x122 -1 x129 -1 x136 -1 x143 -1 x150 -1 x157 >= -10;
+1 x32 +1 x39 +1 x46 +1 x53 +1 x60 +1 x67 +1 x74 +1 x81 +1 x88 +1 x95 +1 x102 +1 x109 +1 x116 +1 x123 +1 x130 +1 x137 +1 x144 +1 x151 +1 x158 >= 9;
-1 x32 -1 x39 -1 x46 -1 x53 -1 x60 -1 x67 -1 x74 -1 x81 -1 x88 -1 x95 -1 x102 -1 x109 -1 x116 -1 x123 -1 x130 -1 x137 -1 x144 -1 x151 -1 x158 >= -10;
+1 x33 +1 x40 +1 x47 +1 x54 +1 x61 +1 x68 +1 x75 +1 x82 +1 x89 +1 x96 +1 x103 +1 x110 +1 x117 +1 x124 +1 x131 +1 x138 +1 x145 +1 x152 +1 x159 >= 9;
-1 x33 -1 x40 -1 x47 -1 x54 -1 x61 -1 x68 -1 x75 -1 x82 -1 x89 -1 x96 -1 x103 -1 x110 -1 x117 -1 x124 -1 x131 -1 x138 -1 x145 -1 x152 -1 x159 >= -10;
+1 x34 +1 x41 +1 x48 +1 x55 +1 x62 +1 x69 +1 x76 +1 x83 +1 x90 +1 x97 +1 x104 +1 x111 +1 x118 +1 x125 +1 x132 +1 x139 +1 x146 +1 x153 +1 x160 >= 9;
-1 x34 -1 x41 -1 x48 -1 x55 -1 x62 -1 x69 -1 x76 -1 x83 -1 x90 -1 x97 -1 x104 -1 x111 -1 x118 -1 x125 -1 x132 -1 x139 -1 x146 -1 x153 -1 x160 >= -10;
+1 x35 +1 x42 +1 x49 +1 x56 +1 x63 +1 x70 +1 x77 +1 x84 +1 x91 +1 x98 +1 x105 +1 x112 +1 x119 +1 x126 +1 x133 +1 x140 +1 x147 +1 x154 +1 x161 >= 9;
-1 x35 -1 x42 -1 x49 -1 x56 -1 x63 -1 x70 -1 x77 -1 x84 -1 x91 -1 x98 -1 x105 -1 x112 -1 x119 -1 x126 -1 x133 -1 x140 -1 x147 -1 x154 -1 x161 >= -10;
+1 x36 +1 x43 +1 x50 +1 x57 +1 x64 +1 x71 +1 x78 +1 x85 +1 x92 +1 x99 +1 x106 +1 x113 +1 x120 +1 x127 +1 x134 +1 x141 +1 x148 +1 x155 +1 x162 >= 9;
-1 x36 -1 x43 -1 x50 -1 x57 -1 x64 -1 x71 -1 x78 -1 x85 -1 x92 -1 x99 -1 x106 -1 x113 -1 x120 -1 x127 -1 x134 -1 x141 -1 x148 -1 x155 -1 x162 >= -10;
+1 x37 +1 x44 +1 x51 +1 x58 +1 x65 +1 x72 +1 x79 +1 x86 +1 x93 +1 x100 +1 x107 +1 x114 +1 x121 +1 x128 +1 x135 +1 x142 +1 x149 +1 x156 +1 x163 >= 9;
-1 x37 -1 x44 -1 x51 -1 x58 -1 x65 -1 x72 -1 x79 -1 x86 -1 x93 -1 x100 -1 x107 -1 x114 -1 x121 -1 x128 -1 x135 -1 x142 -1 x149 -1 x156 -1 x163 >= -10;
+1 x38 +1 x45 +1 x52 +1 x59 +1 x66 +1 x73 +1 x80 +1 x87 +1 x94 +1 x101 +1 x108 +1 x115 +1 x122 +1 x129 +1 x136 +1 x143 +1 x150 +1 x157 +1 x164 >= 9;
-1 x38 -1 x45 -1 x52 -1 x59 -1 x66 -1 x73 -1 x80 -1 x87 -1 x94 -1 x101 -1 x108 -1 x115 -1 x122 -1 x129 -1 x136 -1 x143 -1 x150 -1 x157 -1 x164 >= -10;
+1 x39 +1 x46 +1 x53 +1 x60 +1 x67 +1 x74 +1 x81 +1 x88 +1 x95 +1 x102 +1 x109 +1 x116 +1 x123 +1 x130 +1 x137 +1 x144 +1 x151 +1 x158 +1 x165 >= 9;
-1 x39 -1 x46 -1 x53 -1 x60 -1 x67 -1 x74 -1 x81 -1 x88 -1 x95 -1 x102 -1 x109 -1 x116 -1 x123 -1 x130 -1 x137 -1 x144 -1 x151 -1 x158 -1 x165 >= -10;
+1 x40 +1 x47 +1 x54 +1 x61 +1 x68 +1 x75 +1 x82 +1 x89 +1 x96 +1 x103 +1 x110 +1 x117 +1 x124 +1 x131 +1 x138 +1 x145 +1 x152 +1 x159 +1 x166 >= 9;
-1 x40 -1 x47 -1 x54 -1 x61 -1 x68 -1 x75 -1 x82 -1 x89 -1 x96 -1 x103 -1 x110 -1 x117 -1 x124 -1 x131 -1 x138 -1 x145 -1 x152 -1 x159 -1 x166 >= -10;
+1 x41 +1 x48 +1 x55 +1 x62 +1 x69 +1 x76 +1 x83 +1 x90 +1 x97 +1 x104 +1 x111 +1 x118 +1 x125 +1 x132 +1 x139 +1 x146 +1 x153 +1 x160 +1 x167 >= 9;
-1 x41 -1 x48 -1 x55 -1 x62 -1 x69 -1 x76 -1 x83 -1 x90 -1 x97 -1 x104 -1 x111 -1 x118 -1 x125 -1 x132 -1 x139 -1 x146 -1 x153 -1 x160 -1 x167 >= -10;
+1 x42 +1 x49 +1 x56 +1 x63 +1 x70 +1 x77 +1 x84 +1 x91 +1 x98 +1 x105 +1 x112 +1 x119 +1 x126 +1 x133 +1 x140 +1 x147 +1 x154 +1 x161 +1 x168 >= 9;
-1 x42 -1 x49 -1 x56 -1 x63 -1 x70 -1 x77 -1 x84 -1 x91 -1 x98 -1 x105 -1 x112 -1 x119 -1 x126 -1 x133 -1 x140 -1 x147 -1 x154 -1 x161 -1 x168 >= -10;
+1 x43 +1 x50 +1 x57 +1 x64 +1 x71 +1 x78 +1 x85 +1 x92 +1 x99 +1 x106 +1 x113 +1 x120 +1 x127 +1 x134 +1 x141 +1 x148 +1 x155 +1 x162 +1 x169 >= 9;
-1 x43 -1 x50 -1 x57 -1 x64 -1 x71 -1 x78 -1 x85 -1 x92 -1 x99 -1 x106 -1 x113 -1 x120 -1 x127 -1 x134 -1 x141 -1 x148 -1 x155 -1 x162 -1 x169 >= -10;
+1 x44 +1 x51 +1 x58 +1 x65 +1 x72 +1 x79 +1 x86 +1 x93 +1 x100 +1 x107 +1 x114 +1 x121 +1 x128 +1 x135 +1 x142 +1 x149 +1 x156 +1 x163 +1 x170 >= 9;
-1 x44 -1 x51 -1 x58 -1 x65 -1 x72 -1 x79 -1 x86 -1 x93 -1 x100 -1 x107 -1 x114 -1 x121 -1 x128 -1 x135 -1 x142 -1 x149 -1 x156 -1 x163 -1 x170 >= -10;
+1 x45 +1 x52 +1 x59 +1 x66 +1 x73 +1 x80 +1 x87 +1 x94 +1 x101 +1 x108 +1 x115 +1 x122 +1 x129 +1 x136 +1 x143 +1 x150 +1 x157 +1 x164 +1 x171 >= 9;
-1 x45 -1 x52 -1 x59 -1 x66 -1 x73 -1 x80 -1 x87 -1 x94 -1 x101 -1 x108 -1 x115 -1 x122 -1 x129 -1 x136 -1 x143 -1 x150 -1 x157 -1 x164 -1 x171 >= -10;
+1 x46 +1 x53 +1 x60 +1 x67 +1 x74 +1 x81 +1 x88 +1 x95 +1 x102 +1 x109 +1 x116 +1 x123 +1 x130 +1 x137 +1 x144 +1 x151 +1 x158 +1 x165 +1 x172 >= 9;
-1 x46 -1 x53 -1 x60 -1 x67 -1 x74 -1 x81 -1 x88 -1 x95 -1 x102 -1 x109 -1 x116 -1 x123 -1 x130 -1 x137 -1 x144 -1 x151 -1 x158 -1 x165 -1 x172 >= -10;
+1 x47 +1 x54 +1 x61 +1 x68 +1 x75 +1 x82 +1 x89 +1 x96 +1 x103 +1 x110 +1 x117 +1 x124 +1 x131 +1 x138 +1 x145 +1 x152 +1 x159 +1 x166 +1 x173 >= 9;
-1 x47 -1 x54 -1 x61 -1 x68 -1 x75 -1 x82 -1 x89 -1 x96 -1 x103 -1 x110 -1 x117 -1 x124 -1 x131 -1 x138 -1 x145 -1 x152 -1 x159 -1 x166 -1 x173 >= -10;
+1 x48 +1 x55 +1 x62 +1 x69 +1 x76 +1 x83 +1 x90 +1 x97 +1 x104 +1 x111 +1 x118 +1 x125 +1 x132 +1 x139 +1 x146 +1 x153 +1 x160 +1 x167 +1 x174 >= 9;
-1 x48 -1 x55 -1 x62 -1 x69 -1 x76 -1 x83 -1 x90 -1 x97 -1 x104 -1 x111 -1 x118 -1 x125 -1 x132 -1 x139 -1 x146 -1 x153 -1 x160 -1 x167 -1 x174 >= -10;
+1 x49 +1 x56 +1 x63 +1 x70 +1 x77 +1 x84 +1 x91 +1 x98 +1 x105 +1 x112 +1 x119 +1 x126 +1 x133 +1 x140 +1 x147 +1 x154 +1 x161 +1 x168 +1 x175 >= 9;
-1 x49 -1 x56 -1 x63 -1 x70 -1 x77 -1 x84 -1 x91 -1 x98 -1 x105 -1 x112 -1 x119 -1 x126 -1 x133 -1 x140 -1 x147 -1 x154 -1 x161 -1 x168 -1 x175 >= -10;
+1 x50 +1 x57 +1 x64 +1 x71 +1 x78 +1 x85 +1 x92 +1 x99 +1 x106 +1 x113 +1 x120 +1 x127 +1 x134 +1 x141 +1 x148 +1 x155 +1 x162 +1 x169 +1 x176 >= 9;
-1 x50 -1 x57 -1 x64 -1 x71 -1 x78 -1 x85 -1 x92 -1 x99 -1 x106 -1 x113 -1 x120 -1 x127 -1 x134 -1 x141 -1 x148 -1 x155 -1 x162 -1 x169 -1 x176 >= -10;
+1 x51 +1 x58 +1 x65 +1 x72 +1 x79 +1 x86 +1 x93 +1 x100 +1 x107 +1 x114 +1 x121 +1 x128 +1 x135 +1 x142 +1 x149 +1 x156 +1 x163 +1 x170 +1 x177 >= 9;
-1 x51 -1 x58 -1 x65 -1 x72 -1 x79 -1 x86 -1 x93 -1 x100 -1 x107 -1 x114 -1 x121 -1 x128 -1 x135 -1 x142 -1 x149 -1 x156 -1 x163 -1 x170 -1 x177 >= -10;
+1 x52 +1 x59 +1 x66 +1 x73 +1 x80 +1 x87 +1 x94 +1 x101 +1 x108 +1 x115 +1 x122 +1 x129 +1 x136 +1 x143 +1 x150 +1 x157 +1 x164 +1 x171 +1 x178 >= 9;
-1 x52 -1 x59 -1 x66 -1 x73 -1 x80 -1 x87 -1 x94 -1 x101 -1 x108 -1 x115 -1 x122 -1 x129 -1 x136 -1 x143 -1 x150 -1 x157 -1 x164 -1 x171 -1 x178 >= -10;
+1 x53 +1 x60 +1 x67 +1 x74 +1 x81 +1 x88 +1 x95 +1 x102 +1 x109 +1 x116 +1 x123 +1 x130 +1 x137 +1 x144 +1 x151 +1 x158 +1 x165 +1 x172 +1 x179 >= 9;
-1 x53 -1 x60 -1 x67 -1 x74 -1 x81 -1 x88 -1 x95 -1 x102 -1 x109 -1 x116 -1 x123 -1 x130 -1 x137 -1 x144 -1 x151 -1 x158 -1 x165 -1 x172 -1 x179 >= -10;
+1 x54 +1 x61 +1 x68 +1 x75 +1 x82 +1 x89 +1 x96 +1 x103 +1 x110 +1 x117 +1 x124 +1 x131 +1 x138 +1 x145 +1 x152 +1 x159 +1 x166 +1 x173 +1 x180 >= 9;
-1 x54 -1 x61 -1 x68 -1 x75 -1 x82 -1 x89 -1 x96 -1 x103 -1 x110 -1 x117 -1 x124 -1 x131 -1 x138 -1 x145 -1 x152 -1 x159 -1 x166 -1 x173 -1 x180 >= -10;
+1 x55 +1 x62 +1 x69 +1 x76 +1 x83 +1 x90 +1 x97 +1 x104 +1 x111 +1 x118 +1 x125 +1 x132 +1 x139 +1 x146 +1 x153 +1 x160 +1 x167 +1 x174 +1 x181 >= 9;
-1 x55 -1 x62 -1 x69 -1 x76 -1 x83 -1 x90 -1 x97 -1 x104 -1 x111 -1 x118 -1 x125 -1 x132 -1 x139 -1 x146 -1 x153 -1 x160 -1 x167 -1 x174 -1 x181 >= -10;
+1 x56 +1 x63 +1 x70 +1 x77 +1 x84 +1 x91 +1 x98 +1 x105 +1 x112 +1 x119 +1 x126 +1 x133 +1 x140 +1 x147 +1 x154 +1 x161 +1 x168 +1 x175 +1 x182 >= 9;
-1 x56 -1 x63 -1 x70 -1 x77 -1 x84 -1 x91 -1 x98 -1 x105 -1 x112 -1 x119 -1 x126 -1 x133 -1 x140 -1 x147 -1 x154 -1 x161 -1 x168 -1 x175 -1 x182 >= -10;
+1 x57 +1 x64 +1 x71 +1 x78 +1 x85 +1 x92 +1 x99 +1 x106 +1 x113 +1 x120 +1 x127 +1 x134 +1 x141 +1 x148 +1 x155 +1 x162 +1 x169 +1 x176 +1 x183 >= 9;
-1 x57 -1 x64 -1 x71 -1 x78 -1 x85 -1 x92 -1 x99 -1 x106 -1 x113 -1 x120 -1 x127 -1 x134 -1 x141 -1 x148 -1 x155 -1 x162 -1 x169 -1 x176 -1 x183 >= -10;
+1 x58 +1 x65 +1 x72 +1 x79 +1 x86 +1 x93 +1 x100 +1 x107 +1 x114 +1 x121 +1 x128 +1 x135 +1 x142 +1 x149 +1 x156 +1 x163 +1 x170 +1 x177 +1 x184 >= 9;
-1 x58 -1 x65 -1 x72 -1 x79 -1 x86 -1 x93 -1 x100 -1 x107 -1 x114 -1 x121 -1 x128 -1 x135 -1 x142 -1 x149 -1 x156 -1 x163 -1 x170 -1 x177 -1 x184 >= -10;
+1 x59 +1 x66 +1 x73 +1 x80 +1 x87 +1 x94 +1 x101 +1 x108 +1 x115 +1 x122 +1 x129 +1 x136 +1 x143 +1 x150 +1 x157 +1 x164 +1 x171 +1 x178 +1 x185 >= 9;
-1 x59 -1 x66 -1 x73 -1 x80 -1 x87 -1 x94 -1 x101 -1 x108 -1 x115 -1 x122 -1 x129 -1 x136 -1 x143 -1 x150 -1 x157 -1 x164 -1 x171 -1 x178 -1 x185 >= -10;
+1 x60 +1 x67 +1 x74 +1 x81 +1 x88 +1 x95 +1 x102 +1 x109 +1 x116 +1 x123 +1 x130 +1 x137 +1 x144 +1 x151 +1 x158 +1 x165 +1 x172 +1 x179 +1 x186 >= 9;
-1 x60 -1 x67 -1 x74 -1 x81 -1 x88 -1 x95 -1 x102 -1 x109 -1 x116 -1 x123 -1 x130 -1 x137 -1 x144 -1 x151 -1 x158 -1 x165 -1 x172 -1 x179 -1 x186 >= -10;
+1 x61 +1 x68 +1 x75 +1 x82 +1 x89 +1 x96 +1 x103 +1 x110 +1 x117 +1 x124 +1 x131 +1 x138 +1 x145 +1 x152 +1 x159 +1 x166 +1 x173 +1 x180 +1 x187 >= 9;
-1 x61 -1 x68 -1 x75 -1 x82 -1 x89 -1 x96 -1 x103 -1 x110 -1 x117 -1 x124 -1 x131 -1 x138 -1 x145 -1 x152 -1 x159 -1 x166 -1 x173 -1 x180 -1 x187 >= -10;
+1 x62 +1 x69 +1 x76 +1 x83 +1 x90 +1 x97 +1 x104 +1 x111 +1 x118 +1 x125 +1 x132 +1 x139 +1 x146 +1 x153 +1 x160 +1 x167 +1 x174 +1 x181 +1 x188 >= 9;
-1 x62 -1 x69 -1 x76 -1 x83 -1 x90 -1 x97 -1 x104 -1 x111 -1 x118 -1 x125 -1 x132 -1 x139 -1 x146 -1 x153 -1 x160 -1 x167 -1 x174 -1 x181 -1 x188 >= -10;
+1 x63 +1 x70 +1 x77 +1 x84 +1 x91 +1 x98 +1 x105 +1 x112 +1 x119 +1 x126 +1 x133 +1 x140 +1 x147 +1 x154 +1 x161 +1 x168 +1 x175 +1 x182 +1 x189 >= 9;
-1 x63 -1 x70 -1 x77 -1 x84 -1 x91 -1 x98 -1 x105 -1 x112 -1 x119 -1 x126 -1 x133 -1 x140 -1 x147 -1 x154 -1 x161 -1 x168 -1 x175 -1 x182 -1 x189 >= -10;
+1 x64 +1 x71 +1 x78 +1 x85 +1 x92 +1 x99 +1 x106 +1 x113 +1 x120 +1 x127 +1 x134 +1 x141 +1 x148 +1 x155 +1 x162 +1 x169 +1 x176 +1 x183 +1 x190 >= 9;
-1 x64 -1 x71 -1 x78 -1 x85 -1 x92 -1 x99 -1 x106 -1 x113 -1 x120 -1 x127 -1 x134 -1 x141 -1 x148 -1 x155 -1 x162 -1 x169 -1 x176 -1 x183 -1 x190 >= -10;
+1 x65 +1 x72 +1 x79 +1 x86 +1 x93 +1 x100 +1 x107 +1 x114 +1 x121 +1 x128 +1 x135 +1 x142 +1 x149 +1 x156 +1 x163 +1 x170 +1 x177 +1 x184 +1 x191 >= 9;
-1 x65 -1 x72 -1 x79 -1 x86 -1 x93 -1 x100 -1 x107 -1 x114 -1 x121 -1 x128 -1 x135 -1 x142 -1 x149 -1 x156 -1 x163 -1 x170 -1 x177 -1 x184 -1 x191 >= -10;
+1 x66 +1 x73 +1 x80 +1 x87 +1 x94 +1 x101 +1 x108 +1 x115 +1 x122 +1 x129 +1 x136 +1 x143 +1 x150 +1 x157 +1 x164 +1 x171 +1 x178 +1 x185 +1 x192 >= 9;
-1 x66 -1 x73 -1 x80 -1 x87 -1 x94 -1 x101 -1 x108 -1 x115 -1 x122 -1 x129 -1 x136 -1 x143 -1 x150 -1 x157 -1 x164 -1 x171 -1 x178 -1 x185 -1 x192 >= -10;
+1 x67 +1 x74 +1 x81 +1 x88 +1 x95 +1 x102 +1 x109 +1 x116 +1 x123 +1 x130 +1 x137 +1 x144 +1 x151 +1 x158 +1 x165 +1 x172 +1 x179 +1 x186 +1 x193 >= 9;
-1 x67 -1 x74 -1 x81 -1 x88 -1 x95 -1 x102 -1 x109 -1 x116 -1 x123 -1 x130 -1 x137 -1 x144 -1 x151 -1 x158 -1 x165 -1 x172 -1 x179 -1 x186 -1 x193 >= -10;
+1 x68 +1 x75 +1 x82 +1 x89 +1 x96 +1 x103 +1 x110 +1 x117 +1 x124 +1 x131 +1 x138 +1 x145 +1 x152 +1 x159 +1 x166 +1 x173 +1 x180 +1 x187 +1 x194 >= 9;
-1 x68 -1 x75 -1 x82 -1 x89 -1 x96 -1 x103 -1 x110 -1 x117 -1 x124 -1 x131 -1 x138 -1 x145 -1 x152 -1 x159 -1 x166 -1 x173 -1 x180 -1 x187 -1 x194 >= -10;
+1 x69 +1 x76 +1 x83 +1 x90 +1 x97 +1 x104 +1 x111 +1 x118 +1 x125 +1 x132 +1 x139 +1 x146 +1 x153 +1 x160 +1 x167 +1 x174 +1 x181 +1 x188 +1 x195 >= 9;
-1 x69 -1 x76 -1 x83 -1 x90 -1 x97 -1 x104 -1 x111 -1 x118 -1 x125 -1 x132 -1 x139 -1 x146 -1 x153 -1 x160 -1 x167 -1 x174 -1 x181 -1 x188 -1 x195 >= -10;
+1 x70 +1 x77 +1 x84 +1 x91 +1 x98 +1 x105 +1 x112 +1 x119 +1 x126 +1 x133 +1 x140 +1 x147 +1 x154 +1 x161 +1 x168 +1 x175 +1 x182 +1 x189 +1 x196 >= 9;
-1 x70 -1 x77 -1 x84 -1 x91 -1 x98 -1 x105 -1 x112 -1 x119 -1 x126 -1 x133 -1 x140 -1 x147 -1 x154 -1 x161 -1 x168 -1 x175 -1 x182 -1 x189 -1 x196 >= -10;
+1 x71 +1 x78 +1 x85 +1 x92 +1 x99 +1 x106 +1 x113 +1 x120 +1 x127 +1 x134 +1 x141 +1 x148 +1 x155 +1 x162 +1 x169 +1 x176 +1 x183 +1 x190 +1 x197 >= 9;
-1 x71 -1 x78 -1 x85 -1 x92 -1 x99 -1 x106 -1 x113 -1 x120 -1 x127 -1 x134 -1 x141 -1 x148 -1 x155 -1 x162 -1 x169 -1 x176 -1 x183 -1 x190 -1 x197 >= -10;
+1 x72 +1 x79 +1 x86 +1 x93 +1 x100 +1 x107 +1 x114 +1 x121 +1 x128 +1 x135 +1 x142 +1 x149 +1 x156 +1 x163 +1 x170 +1 x177 +1 x184 +1 x191 +1 x198 >= 9;
-1 x72 -1 x79 -1 x86 -1 x93 -1 x100 -1 x107 -1 x114 -1 x121 -1 x128 -1 x135 -1 x142 -1 x149 -1 x156 -1 x163 -1 x170 -1 x177 -1 x184 -1 x191 -1 x198 >= -10;
+1 x73 +1 x80 +1 x87 +1 x94 +1 x101 +1 x108 +1 x115 +1 x122 +1 x129 +1 x136 +1 x143 +1 x150 +1 x157 +1 x164 +1 x171 +1 x178 +1 x185 +1 x192 +1 x199 >= 9;
-1 x73 -1 x80 -1 x87 -1 x94 -1 x101 -1 x108 -1 x115 -1 x122 -1 x129 -1 x136 -1 x143 -1 x150 -1 x157 -1 x164 -1 x171 -1 x178 -1 x185 -1 x192 -1 x199 >= -10;
+1 x74 +1 x81 +1 x88 +1 x95 +1 x102 +1 x109 +1 x116 +1 x123 +1 x130 +1 x137 +1 x144 +1 x151 +1 x158 +1 x165 +1 x172 +1 x179 +1 x186 +1 x193 +1 x200 >= 9;
-1 x74 -1 x81 -1 x88 -1 x95 -1 x102 -1 x109 -1 x116 -1 x123 -1 x130 -1 x137 -1 x144 -1 x151 -1 x158 -1 x165 -1 x172 -1 x179 -1 x186 -1 x193 -1 x200 >= -10;
+1 x75 +1 x82 +1 x89 +1 x96 +1 x103 +1 x110 +1 x117 +1 x124 +1 x131 +1 x138 +1 x145 +1 x152 +1 x159 +1 x166 +1 x173 +1 x180 +1 x187 +1 x194 +1 x201 >= 9;
-1 x75 -1 x82 -1 x89 -1 x96 -1 x103 -1 x110 -1 x117 -1 x124 -1 x131 -1 x138 -1 x145 -1 x152 -1 x159 -1 x166 -1 x173 -1 x180 -1 x187 -1 x194 -1 x201 >= -10;
+1 x76 +1 x83 +1 x90 +1 x97 +1 x104 +1 x111 +1 x118 +1 x125 +1 x132 +1 x139 +1 x146 +1 x153 +1 x160 +1 x167 +1 x174 +1 x181 +1 x188 +1 x195 +1 x202 >= 9;
-1 x76 -1 x83 -1 x90 -1 x97 -1 x104 -1 x111 -1 x118 -1 x125 -1 x132 -1 x139 -1 x146 -1 x153 -1 x160 -1 x167 -1 x174 -1 x181 -1 x188 -1 x195 -1 x202 >= -10;
+1 x77 +1 x84 +1 x91 +1 x98 +1 x105 +1 x112 +1 x119 +1 x126 +1 x133 +1 x140 +1 x147 +1 x154 +1 x161 +1 x168 +1 x175 +1 x182 +1 x189 +1 x196 +1 x203 >= 9;
-1 x77 -1 x84 -1 x91 -1 x98 -1 x105 -1 x112 -1 x119 -1 x126 -1 x133 -1 x140 -1 x147 -1 x154 -1 x161 -1 x168 -1 x175 -1 x182 -1 x189 -1 x196 -1 x203 >= -10;
+1 x78 +1 x85 +1 x92 +1 x99 +1 x106 +1 x113 +1 x120 +1 x127 +1 x134 +1 x141 +1 x148 +1 x155 +1 x162 +1 x169 +1 x176 +1 x183 +1 x190 +1 x197 +1 x204 >= 9;
-1 x78 -1 x85 -1 x92 -1 x99 -1 x106 -1 x113 -1 x120 -1 x127 -1 x134 -1 x141 -1 x148 -1 x155 -1 x162 -1 x169 -1 x176 -1 x183 -1 x190 -1 x197 -1 x204 >= -10;
+1 x79 +1 x86 +1 x93 +1 x100 +1 x107 +1 x114 +1 x121 +1 x128 +1 x135 +1 x142 +1 x149 +1 x156 +1 x163 +1 x170 +1 x177 +1 x184 +1 x191 +1 x198 +1 x205 >= 9;
-1 x79 -1 x86 -1 x93 -1 x100 -1 x107 -1 x114 -1 x121 -1 x128 -1 x135 -1 x142 -1 x149 -1 x156 -1 x163 -1 x170 -1 x177 -1 x184 -1 x191 -1 x198 -1 x205 >= -10;
+1 x80 +1 x87 +1 x94 +1 x101 +1 x108 +1 x115 +1 x122 +1 x129 +1 x136 +1 x143 +1 x150 +1 x157 +1 x164 +1 x171 +1 x178 +1 x185 +1 x192 +1 x199 +1 x206 >= 9;
-1 x80 -1 x87 -1 x94 -1 x101 -1 x108 -1 x115 -1 x122 -1 x129 -1 x136 -1 x143 -1 x150 -1 x157 -1 x164 -1 x171 -1 x178 -1 x185 -1 x192 -1 x199 -1 x206 >= -10;
+1 x81 +1 x88 +1 x95 +1 x102 +1 x109 +1 x116 +1 x123 +1 x130 +1 x137 +1 x144 +1 x151 +1 x158 +1 x165 +1 x172 +1 x179 +1 x186 +1 x193 +1 x200 +1 x207 >= 9;
-1 x81 -1 x88 -1 x95 -1 x102 -1 x109 -1 x116 -1 x123 -1 x130 -1 x137 -1 x144 -1 x151 -1 x158 -1 x165 -1 x172 -1 x179 -1 x186 -1 x193 -1 x200 -1 x207 >= -10;
+1 x82 +1 x89 +1 x96 +1 x103 +1 x110 +1 x117 +1 x124 +1 x131 +1 x138 +1 x145 +1 x152 +1 x159 +1 x166 +1 x173 +1 x180 +1 x187 +1 x194 +1 x201 +1 x208 >= 9;
-1 x82 -1 x89 -1 x96 -1 x103 -1 x110 -1 x117 -1 x124 -1 x131 -1 x138 -1 x145 -1 x152 -1 x159 -1 x166 -1 x173 -1 x180 -1 x187 -1 x194 -1 x201 -1 x208 >= -10;
+1 x83 +1 x90 +1 x97 +1 x104 +1 x111 +1 x118 +1 x125 +1 x132 +1 x139 +1 x146 +1 x153 +1 x160 +1 x167 +1 x174 +1 x181 +1 x188 +1 x195 +1 x202 +1 x209 >= 9;
-1 x83 -1 x90 -1 x97 -1 x104 -1 x111 -1 x118 -1 x125 -1 x132 -1 x139 -1 x146 -1 x153 -1 x160 -1 x167 -1 x174 -1 x181 -1 x188 -1 x195 -1 x202 -1 x209 >= -10;
+1 x84 +1 x91 +1 x98 +1 x105 +1 x112 +1 x119 +1 x126 +1 x133 +1 x140 +1 x147 +1 x154 +1 x161 +1 x168 +1 x175 +1 x182 +1 x189 +1 x196 +1 x203 +1 x210 >= 9;
-1 x84 -1 x91 -1 x98 -1 x105 -1 x112 -1 x119 -1 x126 -1 x133 -1 x140 -1 x147 -1 x154 -1 x161 -1 x168 -1 x175 -1 x182 -1 x189 -1 x196 -1 x203 -1 x210 >= -10;
+1 x85 +1 x92 +1 x99 +1 x106 +1 x113 +1 x120 +1 x127 +1 x134 +1 x141 +1 x148 +1 x155 +1 x162 +1 x169 +1 x176 +1 x183 +1 x190 +1 x197 +1 x204 +1 x211 >= 9;
-1 x85 -1 x92 -1 x99 -1 x106 -1 x113 -1 x120 -1 x127 -1 x134 -1 x141 -1 x148 -1 x155 -1 x162 -1 x169 -1 x176 -1 x183 -1 x190 -1 x197 -1 x204 -1 x211 >= -10;
+1 x86 +1 x93 +1 x100 +1 x107 +1 x114 +1 x121 +1 x128 +1 x135 +1 x142 +1 x149 +1 x156 +1 x163 +1 x170 +1 x177 +1 x184 +1 x191 +1 x198 +1 x205 +1 x212 >= 9;
-1 x86 -1 x93 -1 x100 -1 x107 -1 x114 -1 x121 -1 x128 -1 x135 -1 x142 -1 x149 -1 x156 -1 x163 -1 x170 -1 x177 -1 x184 -1 x191 -1 x198 -1 x205 -1 x212 >= -10;
+1 x87 +1 x94 +1 x101 +1 x108 +1 x115 +1 x122 +1 x129 +1 x136 +1 x143 +1 x150 +1 x157 +1 x164 +1 x171 +1 x178 +1 x185 +1 x192 +1 x199 +1 x206 +1 x213 >= 9;
-1 x87 -1 x94 -1 x101 -1 x108 -1 x115 -1 x122 -1 x129 -1 x136 -1 x143 -1 x150 -1 x157 -1 x164 -1 x171 -1 x178 -1 x185 -1 x192 -1 x199 -1 x206 -1 x213 >= -10;
+1 x88 +1 x95 +1 x102 +1 x109 +1 x116 +1 x123 +1 x130 +1 x137 +1 x144 +1 x151 +1 x158 +1 x165 +1 x172 +1 x179 +1 x186 +1 x193 +1 x200 +1 x207 +1 x214 >= 9;
-1 x88 -1 x95 -1 x102 -1 x109 -1 x116 -1 x123 -1 x130 -1 x137 -1 x144 -1 x151 -1 x158 -1 x165 -1 x172 -1 x179 -1 x186 -1 x193 -1 x200 -1 x207 -1 x214 >= -10;
+1 x89 +1 x96 +1 x103 +1 x110 +1 x117 +1 x124 +1 x131 +1 x138 +1 x145 +1 x152 +1 x159 +1 x166 +1 x173 +1 x180 +1 x187 +1 x194 +1 x201 +1 x208 +1 x215 >= 9;
-1 x89 -1 x96 -1 x103 -1 x110 -1 x117 -1 x124 -1 x131 -1 x138 -1 x145 -1 x152 -1 x159 -1 x166 -1 x173 -1 x180 -1 x187 -1 x194 -1 x201 -1 x208 -1 x215 >= -10;
+1 x90 +1 x97 +1 x104 +1 x111 +1 x118 +1 x125 +1 x132 +1 x139 +1 x146 +1 x153 +1 x160 +1 x167 +1 x174 +1 x181 +1 x188 +1 x195 +1 x202 +1 x209 +1 x216 >= 9;
-1 x90 -1 x97 -1 x104 -1 x111 -1 x118 -1 x125 -1 x132 -1 x139 -1 x146 -1 x153 -1 x160 -1 x167 -1 x174 -1 x181 -1 x188 -1 x195 -1 x202 -1 x209 -1 x216 >= -10;
+1 x91 +1 x98 +1 x105 +1 x112 +1 x119 +1 x126 +1 x133 +1 x140 +1 x147 +1 x154 +1 x161 +1 x168 +1 x175 +1 x182 +1 x189 +1 x196 +1 x203 +1 x210 +1 x217 >= 9;
-1 x91 -1 x98 -1 x105 -1 x112 -1 x119 -1 x126 -1 x133 -1 x140 -1 x147 -1 x154 -1 x161 -1 x168 -1 x175 -1 x182 -1 x189 -1 x196 -1 x203 -1 x210 -1 x217 >= -10;
+1 x92 +1 x99 +1 x106 +1 x113 +1 x120 +1 x127 +1 x134 +1 x141 +1 x148 +1 x155 +1 x162 +1 x169 +1 x176 +1 x183 +1 x190 +1 x197 +1 x204 +1 x211 +1 x218 >= 9;
-1 x92 -1 x99 -1 x106 -1 x113 -1 x120 -1 x127 -1 x134 -1 x141 -1 x148 -1 x155 -1 x162 -1 x169 -1 x176 -1 x183 -1 x190 -1 x197 -1 x204 -1 x211 -1 x218 >= -10;
+1 x93 +1 x100 +1 x107 +1 x114 +1 x121 +1 x128 +1 x135 +1 x142 +1 x149 +1 x156 +1 x163 +1 x170 +1 x177 +1 x184 +1 x191 +1 x198 +1 x205 +1 x212 +1 x219 >= 9;
-1 x93 -1 x100 -1 x107 -1 x114 -1 x121 -1 x128 -1 x135 -1 x142 -1 x149 -1 x156 -1 x163 -1 x170 -1 x177 -1 x184 -1 x191 -1 x198 -1 x205 -1 x212 -1 x219 >= -10;
+1 x94 +1 x101 +1 x108 +1 x115 +1 x122 +1 x129 +1 x136 +1 x143 +1 x150 +1 x157 +1 x164 +1 x171 +1 x178 +1 x185 +1 x192 +1 x199 +1 x206 +1 x213 +1 x220 >= 9;
-1 x94 -1 x101 -1 x108 -1 x115 -1 x122 -1 x129 -1 x136 -1 x143 -1 x150 -1 x157 -1 x164 -1 x171 -1 x178 -1 x185 -1 x192 -1 x199 -1 x206 -1 x213 -1 x220 >= -10;
+1 x95 +1 x102 +1 x109 +1 x116 +1 x123 +1 x130 +1 x137 +1 x144 +1 x151 +1 x158 +1 x165 +1 x172 +1 x179 +1 x186 +1 x193 +1 x200 +1 x207 +1 x214 +1 x221 >= 9;
-1 x95 -1 x102 -1 x109 -1 x116 -1 x123 -1 x130 -1 x137 -1 x144 -1 x151 -1 x158 -1 x165 -1 x172 -1 x179 -1 x186 -1 x193 -1 x200 -1 x207 -1 x214 -1 x221 >= -10;
+1 x96 +1 x103 +1 x110 +1 x117 +1 x124 +1 x131 +1 x138 +1 x145 +1 x152 +1 x159 +1 x166 +1 x173 +1 x180 +1 x187 +1 x194 +1 x201 +1 x208 +1 x215 +1 x222 >= 9;
-1 x96 -1 x103 -1 x110 -1 x117 -1 x124 -1 x131 -1 x138 -1 x145 -1 x152 -1 x159 -1 x166 -1 x173 -1 x180 -1 x187 -1 x194 -1 x201 -1 x208 -1 x215 -1 x222 >= -10;
+1 x97 +1 x104 +1 x111 +1 x118 +1 x125 +1 x132 +1 x139 +1 x146 +1 x153 +1 x160 +1 x167 +1 x174 +1 x181 +1 x188 +1 x195 +1 x202 +1 x209 +1 x216 +1 x223 >= 9;
-1 x97 -1 x104 -1 x111 -1 x118 -1 x125 -1 x132 -1 x139 -1 x146 -1 x153 -1 x160 -1 x167 -1 x174 -1 x181 -1 x188 -1 x195 -1 x202 -1 x209 -1 x216 -1 x223 >= -10;
+1 x98 +1 x105 +1 x112 +1 x119 +1 x126 +1 x133 +1 x140 +1 x147 +1 x154 +1 x161 +1 x168 +1 x175 +1 x182 +1 x189 +1 x196 +1 x203 +1 x210 +1 x217 +1 x224 >= 9;
-1 x98 -1 x105 -1 x112 -1 x119 -1 x126 -1 x133 -1 x140 -1 x147 -1 x154 -1 x161 -1 x168 -1 x175 -1 x182 -1 x189 -1 x196 -1 x203 -1 x210 -1 x217 -1 x224 >= -10;
+1 x99 +1 x106 +1 x113 +1 x120 +1 x127 +1 x134 +1 x141 +1 x148 +1 x155 +1 x162 +1 x169 +1 x176 +1 x183 +1 x190 +1 x197 +1 x204 +1 x211 +1 x218 +1 x225 >= 9;
-1 x99 -1 x106 -1 x113 -1 x120 -1 x127 -1 x134 -1 x141 -1 x148 -1 x155 -1 x162 -1 x169 -1 x176 -1 x183 -1 x190 -1 x197 -1 x204 -1 x211 -1 x218 -1 x225 >= -10;
+1 x100 +1 x107 +1 x114 +1 x121 +1 x128 +1 x135 +1 x142 +1 x149 +1 x156 +1 x163 +1 x170 +1 x177 +1 x184 +1 x191 +1 x198 +1 x205 +1 x212 +1 x219 +1 x226 >= 9;
-1 x100 -1 x107 -1 x114 -1 x121 -1 x128 -1 x135 -1 x142 -1 x149 -1 x156 -1 x163 -1 x170 -1 x177 -1 x184 -1 x191 -1 x198 -1 x205 -1 x212 -1 x219 -1 x226 >= -10;
+1 x101 +1 x108 +1 x115 +1 x122 +1 x129 +1 x136 +1 x143 +1 x150 +1 x157 +1 x164 +1 x171 +1 x178 +1 x185 +1 x192 +1 x199 +1 x206 +1 x213 +1 x220 +1 x227 >= 9;
-1 x101 -1 x108 -1 x115 -1 x122 -1 x129 -1 x136 -1 x143 -1 x150 -1 x157 -1 x164 -1 x171 -1 x178 -1 x185 -1 x192 -1 x199 -1 x206 -1 x213 -1 x220 -1 x227 >= -10;
+1 x102 +1 x109 +1 x116 +1 x123 +1 x130 +1 x137 +1 x144 +1 x151 +1 x158 +1 x165 +1 x172 +1 x179 +1 x186 +1 x193 +1 x200 +1 x207 +1 x214 +1 x221 +1 x228 >= 9;
-1 x102 -1 x109 -1 x116 -1 x123 -1 x130 -1 x137 -1 x144 -1 x151 -1 x158 -1 x165 -1 x172 -1 x179 -1 x186 -1 x193 -1 x200 -1 x207 -1 x214 -1 x221 -1 x228 >= -10;
+1 x103 +1 x110 +1 x117 +1 x124 +1 x131 +1 x138 +1 x145 +1 x152 +1 x159 +1 x166 +1 x173 +1 x180 +1 x187 +1 x194 +1 x201 +1 x208 +1 x215 +1 x222 +1 x229 >= 9;
-1 x103 -1 x110 -1 x117 -1 x124 -1 x131 -1 x138 -1 x145 -1 x152 -1 x159 -1 x166 -1 x173 -1 x180 -1 x187 -1 x194 -1 x201 -1 x208 -1 x215 -1 x222 -1 x229 >= -10;
+1 x104 +1 x111 +1 x118 +1 x125 +1 x132 +1 x139 +1 x146 +1 x153 +1 x160 +1 x167 +1 x174 +1 x181 +1 x188 +1 x195 +1 x202 +1 x209 +1 x216 +1 x223 +1 x230 >= 9;
-1 x104 -1 x111 -1 x118 -1 x125 -1 x132 -1 x139 -1 x146 -1 x153 -1 x160 -1 x167 -1 x174 -1 x181 -1 x188 -1 x195 -1 x202 -1 x209 -1 x216 -1 x223 -1 x230 >= -10;
+1 x105 +1 x112 +1 x119 +1 x126 +1 x133 +1 x140 +1 x147 +1 x154 +1 x161 +1 x168 +1 x175 +1 x182 +1 x189 +1 x196 +1 x203 +1 x210 +1 x217 +1 x224 +1 x231 >= 9;
-1 x105 -1 x112 -1 x119 -1 x126 -1 x133 -1 x140 -1 x147 -1 x154 -1 x161 -1 x168 -1 x175 -1 x182 -1 x189 -1 x196 -1 x203 -1 x210 -1 x217 -1 x224 -1 x231 >= -10;
+1 x106 +1 x113 +1 x120 +1 x127 +1 x134 +1 x141 +1 x148 +1 x155 +1 x162 +1 x169 +1 x176 +1 x183 +1 x190 +1 x197 +1 x204 +1 x211 +1 x218 +1 x225 +1 x232 >= 9;
-1 x106 -1 x113 -1 x120 -1 x127 -1 x134 -1 x141 -1 x148 -1 x155 -1 x162 -1 x169 -1 x176 -1 x183 -1 x190 -1 x197 -1 x204 -1 x211 -1 x218 -1 x225 -1 x232 >= -10;
+1 x107 +1 x114 +1 x121 +1 x128 +1 x135 +1 x142 +1 x149 +1 x156 +1 x163 +1 x170 +1 x177 +1 x184 +1 x191 +1 x198 +1 x205 +1 x212 +1 x219 +1 x226 +1 x233 >= 9;
-1 x107 -1 x114 -1 x121 -1 x128 -1 x135 -1 x142 -1 x149 -1 x156 -1 x163 -1 x170 -1 x177 -1 x184 -1 x191 -1 x198 -1 x205 -1 x212 -1 x219 -1 x226 -1 x233 >= -10;
+1 x108 +1 x115 +1 x122 +1 x129 +1 x136 +1 x143 +1 x150 +1 x157 +1 x164 +1 x171 +1 x178 +1 x185 +1 x192 +1 x199 +1 x206 +1 x213 +1 x220 +1 x227 +1 x234 >= 9;
-1 x108 -1 x115 -1 x122 -1 x129 -1 x136 -1 x143 -1 x150 -1 x157 -1 x164 -1 x171 -1 x178 -1 x185 -1 x192 -1 x199 -1 x206 -1 x213 -1 x220 -1 x227 -1 x234 >= -10;
+1 x109 +1 x116 +1 x123 +1 x130 +1 x137 +1 x144 +1 x151 +1 x158 +1 x165 +1 x172 +1 x179 +1 x186 +1 x193 +1 x200 +1 x207 +1 x214 +1 x221 +1 x228 +1 x235 >= 9;
-1 x109 -1 x116 -1 x123 -1 x130 -1 x137 -1 x144 -1 x151 -1 x158 -1 x165 -1 x172 -1 x179 -1 x186 -1 x193 -1 x200 -1 x207 -1 x214 -1 x221 -1 x228 -1 x235 >= -10;
+1 x110 +1 x117 +1 x124 +1 x131 +1 x138 +1 x145 +1 x152 +1 x159 +1 x166 +1 x173 +1 x180 +1 x187 +1 x194 +1 x201 +1 x208 +1 x215 +1 x222 +1 x229 +1 x236 >= 9;
-1 x110 -1 x117 -1 x124 -1 x131 -1 x138 -1 x145 -1 x152 -1 x159 -1 x166 -1 x173 -1 x180 -1 x187 -1 x194 -1 x201 -1 x208 -1 x215 -1 x222 -1 x229 -1 x236 >= -10;
+1 x111 +1 x118 +1 x125 +1 x132 +1 x139 +1 x146 +1 x153 +1 x160 +1 x167 +1 x174 +1 x181 +1 x188 +1 x195 +1 x202 +1 x209 +1 x216 +1 x223 +1 x230 +1 x237 >= 9;
-1 x111 -1 x118 -1 x125 -1 x132 -1 x139 -1 x146 -1 x153 -1 x160 -1 x167 -1 x174 -1 x181 -1 x188 -1 x195 -1 x202 -1 x209 -1 x216 -1 x223 -1 x230 -1 x237 >= -10;
+1 x112 +1 x119 +1 x126 +1 x133 +1 x140 +1 x147 +1 x154 +1 x161 +1 x168 +1 x175 +1 x182 +1 x189 +1 x196 +1 x203 +1 x210 +1 x217 +1 x224 +1 x231 +1 x238 >= 9;
-1 x112 -1 x119 -1 x126 -1 x133 -1 x140 -1 x147 -1 x154 -1 x161 -1 x168 -1 x175 -1 x182 -1 x189 -1 x196 -1 x203 -1 x210 -1 x217 -1 x224 -1 x231 -1 x238 >= -10;
+1 x113 +1 x120 +1 x127 +1 x134 +1 x141 +1 x148 +1 x155 +1 x162 +1 x169 +1 x176 +1 x183 +1 x190 +1 x197 +1 x204 +1 x211 +1 x218 +1 x225 +1 x232 +1 x239 >= 9;
-1 x113 -1 x120 -1 x127 -1 x134 -1 x141 -1 x148 -1 x155 -1 x162 -1 x169 -1 x176 -1 x183 -1 x190 -1 x197 -1 x204 -1 x211 -1 x218 -1 x225 -1 x232 -1 x239 >= -10;
+1 x114 +1 x121 +1 x128 +1 x135 +1 x142 +1 x149 +1 x156 +1 x163 +1 x170 +1 x177 +1 x184 +1 x191 +1 x198 +1 x205 +1 x212 +1 x219 +1 x226 +1 x233 +1 x240 >= 9;
-1 x114 -1 x121 -1 x128 -1 x135 -1 x142 -1 x149 -1 x156 -1 x163 -1 x170 -1 x177 -1 x184 -1 x191 -1 x198 -1 x205 -1 x212 -1 x219 -1 x226 -1 x233 -1 x240 >= -10;
+1 x115 +1 x122 +1 x129 +1 x136 +1 x143 +1 x150 +1 x157 +1 x164 +1 x171 +1 x178 +1 x185 +1 x192 +1 x199 +1 x206 +1 x213 +1 x220 +1 x227 +1 x234 +1 x241 >= 9;
-1 x115 -1 x122 -1 x129 -1 x136 -1 x143 -1 x150 -1 x157 -1 x164 -1 x171 -1 x178 -1 x185 -1 x192 -1 x199 -1 x206 -1 x213 -1 x220 -1 x227 -1 x234 -1 x241 >= -10;
+1 x116 +1 x123 +1 x130 +1 x137 +1 x144 +1 x151 +1 x158 +1 x165 +1 x172 +1 x179 +1 x186 +1 x193 +1 x200 +1 x207 +1 x214 +1 x221 +1 x228 +1 x235 +1 x242 >= 9;
-1 x116 -1 x123 -1 x130 -1 x137 -1 x144 -1 x151 -1 x158 -1 x165 -1 x172 -1 x179 -1 x186 -1 x193 -1 x200 -1 x207 -1 x214 -1 x221 -1 x228 -1 x235 -1 x242 >= -10;
+1 x117 +1 x124 +1 x131 +1 x138 +1 x145 +1 x152 +1 x159 +1 x166 +1 x173 +1 x180 +1 x187 +1 x194 +1 x201 +1 x208 +1 x215 +1 x222 +1 x229 +1 x236 +1 x243 >= 9;
-1 x117 -1 x124 -1 x131 -1 x138 -1 x145 -1 x152 -1 x159 -1 x166 -1 x173 -1 x180 -1 x187 -1 x194 -1 x201 -1 x208 -1 x215 -1 x222 -1 x229 -1 x236 -1 x243 >= -10;
+1 x118 +1 x125 +1 x132 +1 x139 +1 x146 +1 x153 +1 x160 +1 x167 +1 x174 +1 x181 +1 x188 +1 x195 +1 x202 +1 x209 +1 x216 +1 x223 +1 x230 +1 x237 +1 x244 >= 9;
-1 x118 -1 x125 -1 x132 -1 x139 -1 x146 -1 x153 -1 x160 -1 x167 -1 x174 -1 x181 -1 x188 -1 x195 -1 x202 -1 x209 -1 x216 -1 x223 -1 x230 -1 x237 -1 x244 >= -10;
+1 x119 +1 x126 +1 x133 +1 x140 +1 x147 +1 x154 +1 x161 +1 x168 +1 x175 +1 x182 +1 x189 +1 x196 +1 x203 +1 x210 +1 x217 +1 x224 +1 x231 +1 x238 +1 x245 >= 9;
-1 x119 -1 x126 -1 x133 -1 x140 -1 x147 -1 x154 -1 x161 -1 x168 -1 x175 -1 x182 -1 x189 -1 x196 -1 x203 -1 x210 -1 x217 -1 x224 -1 x231 -1 x238 -1 x245 >= -10;
+1 x120 +1 x127 +1 x134 +1 x141 +1 x148 +1 x155 +1 x162 +1 x169 +1 x176 +1 x183 +1 x190 +1 x197 +1 x204 +1 x211 +1 x218 +1 x225 +1 x232 +1 x239 +1 x246 >= 9;
-1 x120 -1 x127 -1 x134 -1 x141 -1 x148 -1 x155 -1 x162 -1 x169 -1 x176 -1 x183 -1 x190 -1 x197 -1 x204 -1 x211 -1 x218 -1 x225 -1 x232 -1 x239 -1 x246 >= -10;
+1 x121 +1 x128 +1 x135 +1 x142 +1 x149 +1 x156 +1 x163 +1 x170 +1 x177 +1 x184 +1 x191 +1 x198 +1 x205 +1 x212 +1 x219 +1 x226 +1 x233 +1 x240 +1 x247 >= 9;
-1 x121 -1 x128 -1 x135 -1 x142 -1 x149 -1 x156 -1 x163 -1 x170 -1 x177 -1 x184 -1 x191 -1 x198 -1 x205 -1 x212 -1 x219 -1 x226 -1 x233 -1 x240 -1 x247 >= -10;
+1 x122 +1 x129 +1 x136 +1 x143 +1 x150 +1 x157 +1 x164 +1 x171 +1 x178 +1 x185 +1 x192 +1 x199 +1 x206 +1 x213 +1 x220 +1 x227 +1 x234 +1 x241 +1 x248 >= 9;
-1 x122 -1 x129 -1 x136 -1 x143 -1 x150 -1 x157 -1 x164 -1 x171 -1 x178 -1 x185 -1 x192 -1 x199 -1 x206 -1 x213 -1 x220 -1 x227 -1 x234 -1 x241 -1 x248 >= -10;
+1 x123 +1 x130 +1 x137 +1 x144 +1 x151 +1 x158 +1 x165 +1 x172 +1 x179 +1 x186 +1 x193 +1 x200 +1 x207 +1 x214 +1 x221 +1 x228 +1 x235 +1 x242 +1 x249 >= 9;
-1 x123 -1 x130 -1 x137 -1 x144 -1 x151 -1 x158 -1 x165 -1 x172 -1 x179 -1 x186 -1 x193 -1 x200 -1 x207 -1 x214 -1 x221 -1 x228 -1 x235 -1 x242 -1 x249 >= -10;
+1 x124 +1 x131 +1 x138 +1 x145 +1 x152 +1 x159 +1 x166 +1 x173 +1 x180 +1 x187 +1 x194 +1 x201 +1 x208 +1 x215 +1 x222 +1 x229 +1 x236 +1 x243 +1 x250 >= 9;
-1 x124 -1 x131 -1 x138 -1 x145 -1 x152 -1 x159 -1 x166 -1 x173 -1 x180 -1 x187 -1 x194 -1 x201 -1 x208 -1 x215 -1 x222 -1 x229 -1 x236 -1 x243 -1 x250 >= -10;
+1 x125 +1 x132 +1 x139 +1 x146 +1 x153 +1 x160 +1 x167 +1 x174 +1 x181 +1 x188 +1 x195 +1 x202 +1 x209 +1 x216 +1 x223 +1 x230 +1 x237 +1 x244 +1 x251 >= 9;
-1 x125 -1 x132 -1 x139 -1 x146 -1 x153 -1 x160 -1 x167 -1 x174 -1 x181 -1 x188 -1 x195 -1 x202 -1 x209 -1 x216 -1 x223 -1 x230 -1 x237 -1 x244 -1 x251 >= -10;
+1 x126 +1 x133 +1 x140 +1 x147 +1 x154 +1 x161 +1 x168 +1 x175 +1 x182 +1 x189 +1 x196 +1 x203 +1 x210 +1 x217 +1 x224 +1 x231 +1 x238 +1 x245 +1 x252 >= 9;
-1 x126 -1 x133 -1 x140 -1 x147 -1 x154 -1 x161 -1 x168 -1 x175 -1 x182 -1 x189 -1 x196 -1 x203 -1 x210 -1 x217 -1 x224 -1 x231 -1 x238 -1 x245 -1 x252 >= -10;
+1 x127 +1 x134 +1 x141 +1 x148 +1 x155 +1 x162 +1 x169 +1 x176 +1 x183 +1 x190 +1 x197 +1 x204 +1 x211 +1 x218 +1 x225 +1 x232 +1 x239 +1 x246 +1 x253 >= 9;
-1 x127 -1 x134 -1 x141 -1 x148 -1 x155 -1 x162 -1 x169 -1 x176 -1 x183 -1 x190 -1 x197 -1 x204 -1 x211 -1 x218 -1 x225 -1 x232 -1 x239 -1 x246 -1 x253 >= -10;
+1 x128 +1 x135 +1 x142 +1 x149 +1 x156 +1 x163 +1 x170 +1 x177 +1 x184 +1 x191 +1 x198 +1 x205 +1 x212 +1 x219 +1 x226 +1 x233 +1 x240 +1 x247 +1 x254 >= 9;
-1 x128 -1 x135 -1 x142 -1 x149 -1 x156 -1 x163 -1 x170 -1 x177 -1 x184 -1 x191 -1 x198 -1 x205 -1 x212 -1 x219 -1 x226 -1 x233 -1 x240 -1 x247 -1 x254 >= -10;
+1 x129 +1 x136 +1 x143 +1 x150 +1 x157 +1 x164 +1 x171 +1 x178 +1 x185 +1 x192 +1 x199 +1 x206 +1 x213 +1 x220 +1 x227 +1 x234 +1 x241 +1 x248 +1 x255 >= 9;
-1 x129 -1 x136 -1 x143 -1 x150 -1 x157 -1 x164 -1 x171 -1 x178 -1 x185 -1 x192 -1 x199 -1 x206 -1 x213 -1 x220 -1 x227 -1 x234 -1 x241 -1 x248 -1 x255 >= -10;
+1 x130 +1 x137 +1 x144 +1 x151 +1 x158 +1 x165 +1 x172 +1 x179 +1 x186 +1 x193 +1 x200 +1 x207 +1 x214 +1 x221 +1 x228 +1 x235 +1 x242 +1 x249 +1 x256 >= 9;
-1 x130 -1 x137 -1 x144 -1 x151 -1 x158 -1 x165 -1 x172 -1 x179 -1 x186 -1 x193 -1 x200 -1 x207 -1 x214 -1 x221 -1 x228 -1 x235 -1 x242 -1 x249 -1 x256 >= -10;
+1 x131 +1 x138 +1 x145 +1 x152 +1 x159 +1 x166 +1 x173 +1 x180 +1 x187 +1 x194 +1 x201 +1 x208 +1 x215 +1 x222 +1 x229 +1 x236 +1 x243 +1 x250 +1 x257 >= 9;
-1 x131 -1 x138 -1 x145 -1 x152 -1 x159 -1 x166 -1 x173 -1 x180 -1 x187 -1 x194 -1 x201 -1 x208 -1 x215 -1 x222 -1 x229 -1 x236 -1 x243 -1 x250 -1 x257 >= -10;
+1 x132 +1 x139 +1 x146 +1 x153 +1 x160 +1 x167 +1 x174 +1 x181 +1 x188 +1 x195 +1 x202 +1 x209 +1 x216 +1 x223 +1 x230 +1 x237 +1 x244 +1 x251 +1 x258 >= 9;
-1 x132 -1 x139 -1 x146 -1 x153 -1 x160 -1 x167 -1 x174 -1 x181 -1 x188 -1 x195 -1 x202 -1 x209 -1 x216 -1 x223 -1 x230 -1 x237 -1 x244 -1 x251 -1 x258 >= -10;
+1 x133 +1 x140 +1 x147 +1 x154 +1 x161 +1 x168 +1 x175 +1 x182 +1 x189 +1 x196 +1 x203 +1 x210 +1 x217 +1 x224 +1 x231 +1 x238 +1 x245 +1 x252 +1 x259 >= 9;
-1 x133 -1 x140 -1 x147 -1 x154 -1 x161 -1 x168 -1 x175 -1 x182 -1 x189 -1 x196 -1 x203 -1 x210 -1 x217 -1 x224 -1 x231 -1 x238 -1 x245 -1 x252 -1 x259 >= -10;
+1 x134 +1 x141 +1 x148 +1 x155 +1 x162 +1 x169 +1 x176 +1 x183 +1 x190 +1 x197 +1 x204 +1 x211 +1 x218 +1 x225 +1 x232 +1 x239 +1 x246 +1 x253 +1 x260 >= 9;
-1 x134 -1 x141 -1 x148 -1 x155 -1 x162 -1 x169 -1 x176 -1 x183 -1 x190 -1 x197 -1 x204 -1 x211 -1 x218 -1 x225 -1 x232 -1 x239 -1 x246 -1 x253 -1 x260 >= -10;
+1 x135 +1 x142 +1 x149 +1 x156 +1 x163 +1 x170 +1 x177 +1 x184 +1 x191 +1 x198 +1 x205 +1 x212 +1 x219 +1 x226 +1 x233 +1 x240 +1 x247 +1 x254 +1 x261 >= 9;
-1 x135 -1 x142 -1 x149 -1 x156 -1 x163 -1 x170 -1 x177 -1 x184 -1 x191 -1 x198 -1 x205 -1 x212 -1 x219 -1 x226 -1 x233 -1 x240 -1 x247 -1 x254 -1 x261 >= -10;
+1 x136 +1 x143 +1 x150 +1 x157 +1 x164 +1 x171 +1 x178 +1 x185 +1 x192 +1 x199 +1 x206 +1 x213 +1 x220 +1 x227 +1 x234 +1 x241 +1 x248 +1 x255 +1 x262 >= 9;
-1 x136 -1 x143 -1 x150 -1 x157 -1 x164 -1 x171 -1 x178 -1 x185 -1 x192 -1 x199 -1 x206 -1 x213 -1 x220 -1 x227 -1 x234 -1 x241 -1 x248 -1 x255 -1 x262 >= -10;
+1 x137 +1 x144 +1 x151 +1 x158 +1 x165 +1 x172 +1 x179 +1 x186 +1 x193 +1 x200 +1 x207 +1 x214 +1 x221 +1 x228 +1 x235 +1 x242 +1 x249 +1 x256 +1 x263 >= 9;
-1 x137 -1 x144 -1 x151 -1 x158 -1 x165 -1 x172 -1 x179 -1 x186 -1 x193 -1 x200 -1 x207 -1 x214 -1 x221 -1 x228 -1 x235 -1 x242 -1 x249 -1 x256 -1 x263 >= -10;
+1 x138 +1 x145 +1 x152 +1 x159 +1 x166 +1 x173 +1 x180 +1 x187 +1 x194 +1 x201 +1 x208 +1 x215 +1 x222 +1 x229 +1 x236 +1 x243 +1 x250 +1 x257 +1 x264 >= 9;
-1 x138 -1 x145 -1 x152 -1 x159 -1 x166 -1 x173 -1 x180 -1 x187 -1 x194 -1 x201 -1 x208 -1 x215 -1 x222 -1 x229 -1 x236 -1 x243 -1 x250 -1 x257 -1 x264 >= -10;
+1 x139 +1 x146 +1 x153 +1 x160 +1 x167 +1 x174 +1 x181 +1 x188 +1 x195 +1 x202 +1 x209 +1 x216 +1 x223 +1 x230 +1 x237 +1 x244 +1 x251 +1 x258 +1 x265 >= 9;
-1 x139 -1 x146 -1 x153 -1 x160 -1 x167 -1 x174 -1 x181 -1 x188 -1 x195 -1 x202 -1 x209 -1 x216 -1 x223 -1 x230 -1 x237 -1 x244 -1 x251 -1 x258 -1 x265 >= -10;
+1 x140 +1 x147 +1 x154 +1 x161 +1 x168 +1 x175 +1 x182 +1 x189 +1 x196 +1 x203 +1 x210 +1 x217 +1 x224 +1 x231 +1 x238 +1 x245 +1 x252 +1 x259 +1 x266 >= 9;
-1 x140 -1 x147 -1 x154 -1 x161 -1 x168 -1 x175 -1 x182 -1 x189 -1 x196 -1 x203 -1 x210 -1 x217 -1 x224 -1 x231 -1 x238 -1 x245 -1 x252 -1 x259 -1 x266 >= -10;
+1 x141 +1 x148 +1 x155 +1 x162 +1 x169 +1 x176 +1 x183 +1 x190 +1 x197 +1 x204 +1 x211 +1 x218 +1 x225 +1 x232 +1 x239 +1 x246 +1 x253 +1 x260 +1 x267 >= 9;
-1 x141 -1 x148 -1 x155 -1 x162 -1 x169 -1 x176 -1 x183 -1 x190 -1 x197 -1 x204 -1 x211 -1 x218 -1 x225 -1 x232 -1 x239 -1 x246 -1 x253 -1 x260 -1 x267 >= -10;
+1 x142 +1 x149 +1 x156 +1 x163 +1 x170 +1 x177 +1 x184 +1 x191 +1 x198 +1 x205 +1 x212 +1 x219 +1 x226 +1 x233 +1 x240 +1 x247 +1 x254 +1 x261 +1 x268 >= 9;
-1 x142 -1 x149 -1 x156 -1 x163 -1 x170 -1 x177 -1 x184 -1 x191 -1 x198 -1 x205 -1 x212 -1 x219 -1 x226 -1 x233 -1 x240 -1 x247 -1 x254 -1 x261 -1 x268 >= -10;
+1 x143 +1 x150 +1 x157 +1 x164 +1 x171 +1 x178 +1 x185 +1 x192 +1 x199 +1 x206 +1 x213 +1 x220 +1 x227 +1 x234 +1 x241 +1 x248 +1 x255 +1 x262 +1 x269 >= 9;
-1 x143 -1 x150 -1 x157 -1 x164 -1 x171 -1 x178 -1 x185 -1 x192 -1 x199 -1 x206 -1 x213 -1 x220 -1 x227 -1 x234 -1 x241 -1 x248 -1 x255 -1 x262 -1 x269 >= -10;
+1 x144 +1 x151 +1 x158 +1 x165 +1 x172 +1 x179 +1 x186 +1 x193 +1 x200 +1 x207 +1 x214 +1 x221 +1 x228 +1 x235 +1 x242 +1 x249 +1 x256 +1 x263 +1 x270 >= 9;
-1 x144 -1 x151 -1 x158 -1 x165 -1 x172 -1 x179 -1 x186 -1 x193 -1 x200 -1 x207 -1 x214 -1 x221 -1 x228 -1 x235 -1 x242 -1 x249 -1 x256 -1 x263 -1 x270 >= -10;
+1 x145 +1 x152 +1 x159 +1 x166 +1 x173 +1 x180 +1 x187 +1 x194 +1 x201 +1 x208 +1 x215 +1 x222 +1 x229 +1 x236 +1 x243 +1 x250 +1 x257 +1 x264 +1 x271 >= 9;
-1 x145 -1 x152 -1 x159 -1 x166 -1 x173 -1 x180 -1 x187 -1 x194 -1 x201 -1 x208 -1 x215 -1 x222 -1 x229 -1 x236 -1 x243 -1 x250 -1 x257 -1 x264 -1 x271 >= -10;
+1 x146 +1 x153 +1 x160 +1 x167 +1 x174 +1 x181 +1 x188 +1 x195 +1 x202 +1 x209 +1 x216 +1 x223 +1 x230 +1 x237 +1 x244 +1 x251 +1 x258 +1 x265 +1 x272 >= 9;
-1 x146 -1 x153 -1 x160 -1 x167 -1 x174 -1 x181 -1 x188 -1 x195 -1 x202 -1 x209 -1 x216 -1 x223 -1 x230 -1 x237 -1 x244 -1 x251 -1 x258 -1 x265 -1 x272 >= -10;
+1 x147 +1 x154 +1 x161 +1 x168 +1 x175 +1 x182 +1 x189 +1 x196 +1 x203 +1 x210 +1 x217 +1 x224 +1 x231 +1 x238 +1 x245 +1 x252 +1 x259 +1 x266 +1 x273 >= 9;
-1 x147 -1 x154 -1 x161 -1 x168 -1 x175 -1 x182 -1 x189 -1 x196 -1 x203 -1 x210 -1 x217 -1 x224 -1 x231 -1 x238 -1 x245 -1 x252 -1 x259 -1 x266 -1 x273 >= -10;
+1 x148 +1 x155 +1 x162 +1 x169 +1 x176 +1 x183 +1 x190 +1 x197 +1 x204 +1 x211 +1 x218 +1 x225 +1 x232 +1 x239 +1 x246 +1 x253 +1 x260 +1 x267 +1 x274 >= 9;
-1 x148 -1 x155 -1 x162 -1 x169 -1 x176 -1 x183 -1 x190 -1 x197 -1 x204 -1 x211 -1 x218 -1 x225 -1 x232 -1 x239 -1 x246 -1 x253 -1 x260 -1 x267 -1 x274 >= -10;
+1 x149 +1 x156 +1 x163 +1 x170 +1 x177 +1 x184 +1 x191 +1 x198 +1 x205 +1 x212 +1 x219 +1 x226 +1 x233 +1 x240 +1 x247 +1 x254 +1 x261 +1 x268 +1 x275 >= 9;
-1 x149 -1 x156 -1 x163 -1 x170 -1 x177 -1 x184 -1 x191 -1 x198 -1 x205 -1 x212 -1 x219 -1 x226 -1 x233 -1 x240 -1 x247 -1 x254 -1 x261 -1 x268 -1 x275 >= -10;
+1 x150 +1 x157 +1 x164 +1 x171 +1 x178 +1 x185 +1 x192 +1 x199 +1 x206 +1 x213 +1 x220 +1 x227 +1 x234 +1 x241 +1 x248 +1 x255 +1 x262 +1 x269 +1 x276 >= 9;
-1 x150 -1 x157 -1 x164 -1 x171 -1 x178 -1 x185 -1 x192 -1 x199 -1 x206 -1 x213 -1 x220 -1 x227 -1 x234 -1 x241 -1 x248 -1 x255 -1 x262 -1 x269 -1 x276 >= -10;
+1 x151 +1 x158 +1 x165 +1 x172 +1 x179 +1 x186 +1 x193 +1 x200 +1 x207 +1 x214 +1 x221 +1 x228 +1 x235 +1 x242 +1 x249 +1 x256 +1 x263 +1 x270 +1 x277 >= 9;
-1 x151 -1 x158 -1 x165 -1 x172 -1 x179 -1 x186 -1 x193 -1 x200 -1 x207 -1 x214 -1 x221 -1 x228 -1 x235 -1 x242 -1 x249 -1 x256 -1 x263 -1 x270 -1 x277 >= -10;
+1 x152 +1 x159 +1 x166 +1 x173 +1 x180 +1 x187 +1 x194 +1 x201 +1 x208 +1 x215 +1 x222 +1 x229 +1 x236 +1 x243 +1 x250 +1 x257 +1 x264 +1 x271 +1 x278 >= 9;
-1 x152 -1 x159 -1 x166 -1 x173 -1 x180 -1 x187 -1 x194 -1 x201 -1 x208 -1 x215 -1 x222 -1 x229 -1 x236 -1 x243 -1 x250 -1 x257 -1 x264 -1 x271 -1 x278 >= -10;
+1 x153 +1 x160 +1 x167 +1 x174 +1 x181 +1 x188 +1 x195 +1 x202 +1 x209 +1 x216 +1 x223 +1 x230 +1 x237 +1 x244 +1 x251 +1 x258 +1 x265 +1 x272 +1 x279 >= 9;
-1 x153 -1 x160 -1 x167 -1 x174 -1 x181 -1 x188 -1 x195 -1 x202 -1 x209 -1 x216 -1 x223 -1 x230 -1 x237 -1 x244 -1 x251 -1 x258 -1 x265 -1 x272 -1 x279 >= -10;
+1 x154 +1 x161 +1 x168 +1 x175 +1 x182 +1 x189 +1 x196 +1 x203 +1 x210 +1 x217 +1 x224 +1 x231 +1 x238 +1 x245 +1 x252 +1 x259 +1 x266 +1 x273 +1 x280 >= 9;
-1 x154 -1 x161 -1 x168 -1 x175 -1 x182 -1 x189 -1 x196 -1 x203 -1 x210 -1 x217 -1 x224 -1 x231 -1 x238 -1 x245 -1 x252 -1 x259 -1 x266 -1 x273 -1 x280 >= -10;
+1 x155 +1 x162 +1 x169 +1 x176 +1 x183 +1 x190 +1 x197 +1 x204 +1 x211 +1 x218 +1 x225 +1 x232 +1 x239 +1 x246 +1 x253 +1 x260 +1 x267 +1 x274 +1 x281 >= 9;
-1 x155 -1 x162 -1 x169 -1 x176 -1 x183 -1 x190 -1 x197 -1 x204 -1 x211 -1 x218 -1 x225 -1 x232 -1 x239 -1 x246 -1 x253 -1 x260 -1 x267 -1 x274 -1 x281 >= -10;
+1 x156 +1 x163 +1 x170 +1 x177 +1 x184 +1 x191 +1 x198 +1 x205 +1 x212 +1 x219 +1 x226 +1 x233 +1 x240 +1 x247 +1 x254 +1 x261 +1 x268 +1 x275 +1 x282 >= 9;
-1 x156 -1 x163 -1 x170 -1 x177 -1 x184 -1 x191 -1 x198 -1 x205 -1 x212 -1 x219 -1 x226 -1 x233 -1 x240 -1 x247 -1 x254 -1 x261 -1 x268 -1 x275 -1 x282 >= -10;
+1 x157 +1 x164 +1 x171 +1 x178 +1 x185 +1 x192 +1 x199 +1 x206 +1 x213 +1 x220 +1 x227 +1 x234 +1 x241 +1 x248 +1 x255 +1 x262 +1 x269 +1 x276 +1 x283 >= 9;
-1 x157 -1 x164 -1 x171 -1 x178 -1 x185 -1 x192 -1 x199 -1 x206 -1 x213 -1 x220 -1 x227 -1 x234 -1 x241 -1 x248 -1 x255 -1 x262 -1 x269 -1 x276 -1 x283 >= -10;
+1 x158 +1 x165 +1 x172 +1 x179 +1 x186 +1 x193 +1 x200 +1 x207 +1 x214 +1 x221 +1 x228 +1 x235 +1 x242 +1 x249 +1 x256 +1 x263 +1 x270 +1 x277 +1 x284 >= 9;
-1 x158 -1 x165 -1 x172 -1 x179 -1 x186 -1 x193 -1 x200 -1 x207 -1 x214 -1 x221 -1 x228 -1 x235 -1 x242 -1 x249 -1 x256 -1 x263 -1 x270 -1 x277 -1 x284 >= -10;
+1 x159 +1 x166 +1 x173 +1 x180 +1 x187 +1 x194 +1 x201 +1 x208 +1 x215 +1 x222 +1 x229 +1 x236 +1 x243 +1 x250 +1 x257 +1 x264 +1 x271 +1 x278 +1 x285 >= 9;
-1 x159 -1 x166 -1 x173 -1 x180 -1 x187 -1 x194 -1 x201 -1 x208 -1 x215 -1 x222 -1 x229 -1 x236 -1 x243 -1 x250 -1 x257 -1 x264 -1 x271 -1 x278 -1 x285 >= -10;
+1 x160 +1 x167 +1 x174 +1 x181 +1 x188 +1 x195 +1 x202 +1 x209 +1 x216 +1 x223 +1 x230 +1 x237 +1 x244 +1 x251 +1 x258 +1 x265 +1 x272 +1 x279 +1 x286 >= 9;
-1 x160 -1 x167 -1 x174 -1 x181 -1 x188 -1 x195 -1 x202 -1 x209 -1 x216 -1 x223 -1 x230 -1 x237 -1 x244 -1 x251 -1 x258 -1 x265 -1 x272 -1 x279 -1 x286 >= -10;
+1 x161 +1 x168 +1 x175 +1 x182 +1 x189 +1 x196 +1 x203 +1 x210 +1 x217 +1 x224 +1 x231 +1 x238 +1 x245 +1 x252 +1 x259 +1 x266 +1 x273 +1 x280 +1 x287 >= 9;
-1 x161 -1 x168 -1 x175 -1 x182 -1 x189 -1 x196 -1 x203 -1 x210 -1 x217 -1 x224 -1 x231 -1 x238 -1 x245 -1 x252 -1 x259 -1 x266 -1 x273 -1 x280 -1 x287 >= -10;
+1 x162 +1 x169 +1 x176 +1 x183 +1 x190 +1 x197 +1 x204 +1 x211 +1 x218 +1 x225 +1 x232 +1 x239 +1 x246 +1 x253 +1 x260 +1 x267 +1 x274 +1 x281 +1 x288 >= 9;
-1 x162 -1 x169 -1 x176 -1 x183 -1 x190 -1 x197 -1 x204 -1 x211 -1 x218 -1 x225 -1 x232 -1 x239 -1 x246 -1 x253 -1 x260 -1 x267 -1 x274 -1 x281 -1 x288 >= -10;
+1 x163 +1 x170 +1 x177 +1 x184 +1 x191 +1 x198 +1 x205 +1 x212 +1 x219 +1 x226 +1 x233 +1 x240 +1 x247 +1 x254 +1 x261 +1 x268 +1 x275 +1 x282 +1 x289 >= 9;
-1 x163 -1 x170 -1 x177 -1 x184 -1 x191 -1 x198 -1 x205 -1 x212 -1 x219 -1 x226 -1 x233 -1 x240 -1 x247 -1 x254 -1 x261 -1 x268 -1 x275 -1 x282 -1 x289 >= -10;
+1 x164 +1 x171 +1 x178 +1 x185 +1 x192 +1 x199 +1 x206 +1 x213 +1 x220 +1 x227 +1 x234 +1 x241 +1 x248 +1 x255 +1 x262 +1 x269 +1 x276 +1 x283 +1 x290 >= 9;
-1 x164 -1 x171 -1 x178 -1 x185 -1 x192 -1 x199 -1 x206 -1 x213 -1 x220 -1 x227 -1 x234 -1 x241 -1 x248 -1 x255 -1 x262 -1 x269 -1 x276 -1 x283 -1 x290 >= -10;
+1 x165 +1 x172 +1 x179 +1 x186 +1 x193 +1 x200 +1 x207 +1 x214 +1 x221 +1 x228 +1 x235 +1 x242 +1 x249 +1 x256 +1 x263 +1 x270 +1 x277 +1 x284 +1 x291 >= 9;
-1 x165 -1 x172 -1 x179 -1 x186 -1 x193 -1 x200 -1 x207 -1 x214 -1 x221 -1 x228 -1 x235 -1 x242 -1 x249 -1 x256 -1 x263 -1 x270 -1 x277 -1 x284 -1 x291 >= -10;
+1 x166 +1 x173 +1 x180 +1 x187 +1 x194 +1 x201 +1 x208 +1 x215 +1 x222 +1 x229 +1 x236 +1 x243 +1 x250 +1 x257 +1 x264 +1 x271 +1 x278 +1 x285 +1 x292 >= 9;
-1 x166 -1 x173 -1 x180 -1 x187 -1 x194 -1 x201 -1 x208 -1 x215 -1 x222 -1 x229 -1 x236 -1 x243 -1 x250 -1 x257 -1 x264 -1 x271 -1 x278 -1 x285 -1 x292 >= -10;
+1 x167 +1 x174 +1 x181 +1 x188 +1 x195 +1 x202 +1 x209 +1 x216 +1 x223 +1 x230 +1 x237 +1 x244 +1 x251 +1 x258 +1 x265 +1 x272 +1 x279 +1 x286 +1 x293 >= 9;
-1 x167 -1 x174 -1 x181 -1 x188 -1 x195 -1 x202 -1 x209 -1 x216 -1 x223 -1 x230 -1 x237 -1 x244 -1 x251 -1 x258 -1 x265 -1 x272 -1 x279 -1 x286 -1 x293 >= -10;
+1 x168 +1 x175 +1 x182 +1 x189 +1 x196 +1 x203 +1 x210 +1 x217 +1 x224 +1 x231 +1 x238 +1 x245 +1 x252 +1 x259 +1 x266 +1 x273 +1 x280 +1 x287 +1 x294 >= 9;
-1 x168 -1 x175 -1 x182 -1 x189 -1 x196 -1 x203 -1 x210 -1 x217 -1 x224 -1 x231 -1 x238 -1 x245 -1 x252 -1 x259 -1 x266 -1 x273 -1 x280 -1 x287 -1 x294 >= -10;
+1 x169 +1 x176 +1 x183 +1 x190 +1 x197 +1 x204 +1 x211 +1 x218 +1 x225 +1 x232 +1 x239 +1 x246 +1 x253 +1 x260 +1 x267 +1 x274 +1 x281 +1 x288 +1 x295 >= 9;
-1 x169 -1 x176 -1 x183 -1 x190 -1 x197 -1 x204 -1 x211 -1 x218 -1 x225 -1 x232 -1 x239 -1 x246 -1 x253 -1 x260 -1 x267 -1 x274 -1 x281 -1 x288 -1 x295 >= -10;
+1 x170 +1 x177 +1 x184 +1 x191 +1 x198 +1 x205 +1 x212 +1 x219 +1 x226 +1 x233 +1 x240 +1 x247 +1 x254 +1 x261 +1 x268 +1 x275 +1 x282 +1 x289 +1 x296 >= 9;
-1 x170 -1 x177 -1 x184 -1 x191 -1 x198 -1 x205 -1 x212 -1 x219 -1 x226 -1 x233 -1 x240 -1 x247 -1 x254 -1 x261 -1 x268 -1 x275 -1 x282 -1 x289 -1 x296 >= -10;
+1 x171 +1 x178 +1 x185 +1 x192 +1 x199 +1 x206 +1 x213 +1 x220 +1 x227 +1 x234 +1 x241 +1 x248 +1 x255 +1 x262 +1 x269 +1 x276 +1 x283 +1 x290 +1 x297 >= 9;
-1 x171 -1 x178 -1 x185 -1 x192 -1 x199 -1 x206 -1 x213 -1 x220 -1 x227 -1 x234 -1 x241 -1 x248 -1 x255 -1 x262 -1 x269 -1 x276 -1 x283 -1 x290 -1 x297 >= -10;
+1 x172 +1 x179 +1 x186 +1 x193 +1 x200 +1 x207 +1 x214 +1 x221 +1 x228 +1 x235 +1 x242 +1 x249 +1 x256 +1 x263 +1 x270 +1 x277 +1 x284 +1 x291 +1 x298 >= 9;
-1 x172 -1 x179 -1 x186 -1 x193 -1 x200 -1 x207 -1 x214 -1 x221 -1 x228 -1 x235 -1 x242 -1 x249 -1 x256 -1 x263 -1 x270 -1 x277 -1 x284 -1 x291 -1 x298 >= -10;
+1 x173 +1 x180 +1 x187 +1 x194 +1 x201 +1 x208 +1 x215 +1 x222 +1 x229 +1 x236 +1 x243 +1 x250 +1 x257 +1 x264 +1 x271 +1 x278 +1 x285 +1 x292 +1 x299 >= 9;
-1 x173 -1 x180 -1 x187 -1 x194 -1 x201 -1 x208 -1 x215 -1 x222 -1 x229 -1 x236 -1 x243 -1 x250 -1 x257 -1 x264 -1 x271 -1 x278 -1 x285 -1 x292 -1 x299 >= -10;
+1 x174 +1 x181 +1 x188 +1 x195 +1 x202 +1 x209 +1 x216 +1 x223 +1 x230 +1 x237 +1 x244 +1 x251 +1 x258 +1 x265 +1 x272 +1 x279 +1 x286 +1 x293 +1 x300 >= 9;
-1 x174 -1 x181 -1 x188 -1 x195 -1 x202 -1 x209 -1 x216 -1 x223 -1 x230 -1 x237 -1 x244 -1 x251 -1 x258 -1 x265 -1 x272 -1 x279 -1 x286 -1 x293 -1 x300 >= -10;
+1 x175 +1 x182 +1 x189 +1 x196 +1 x203 +1 x210 +1 x217 +1 x224 +1 x231 +1 x238 +1 x245 +1 x252 +1 x259 +1 x266 +1 x273 +1 x280 +1 x287 +1 x294 +1 x301 >= 9;
-1 x175 -1 x182 -1 x189 -1 x196 -1 x203 -1 x210 -1 x217 -1 x224 -1 x231 -1 x238 -1 x245 -1 x252 -1 x259 -1 x266 -1 x273 -1 x280 -1 x287 -1 x294 -1 x301 >= -10;
+1 x176 +1 x183 +1 x190 +1 x197 +1 x204 +1 x211 +1 x218 +1 x225 +1 x232 +1 x239 +1 x246 +1 x253 +1 x260 +1 x267 +1 x274 +1 x281 +1 x288 +1 x295 +1 x302 >= 9;
-1 x176 -1 x183 -1 x190 -1 x197 -1 x204 -1 x211 -1 x218 -1 x225 -1 x232 -1 x239 -1 x246 -1 x253 -1 x260 -1 x267 -1 x274 -1 x281 -1 x288 -1 x295 -1 x302 >= -10;
+1 x177 +1 x184 +1 x191 +1 x198 +1 x205 +1 x212 +1 x219 +1 x226 +1 x233 +1 x240 +1 x247 +1 x254 +1 x261 +1 x268 +1 x275 +1 x282 +1 x289 +1 x296 +1 x303 >= 9;
-1 x177 -1 x184 -1 x191 -1 x198 -1 x205 -1 x212 -1 x219 -1 x226 -1 x233 -1 x240 -1 x247 -1 x254 -1 x261 -1 x268 -1 x275 -1 x282 -1 x289 -1 x296 -1 x303 >= -10;
+1 x178 +1 x185 +1 x192 +1 x199 +1 x206 +1 x213 +1 x220 +1 x227 +1 x234 +1 x241 +1 x248 +1 x255 +1 x262 +1 x269 +1 x276 +1 x283 +1 x290 +1 x297 +1 x304 >= 9;
-1 x178 -1 x185 -1 x192 -1 x199 -1 x206 -1 x213 -1 x220 -1 x227 -1 x234 -1 x241 -1 x248 -1 x255 -1 x262 -1 x269 -1 x276 -1 x283 -1 x290 -1 x297 -1 x304 >= -10;
+1 x179 +1 x186 +1 x193 +1 x200 +1 x207 +1 x214 +1 x221 +1 x228 +1 x235 +1 x242 +1 x249 +1 x256 +1 x263 +1 x270 +1 x277 +1 x284 +1 x291 +1 x298 +1 x305 >= 9;
-1 x179 -1 x186 -1 x193 -1 x200 -1 x207 -1 x214 -1 x221 -1 x228 -1 x235 -1 x242 -1 x249 -1 x256 -1 x263 -1 x270 -1 x277 -1 x284 -1 x291 -1 x298 -1 x305 >= -10;
+1 x180 +1 x187 +1 x194 +1 x201 +1 x208 +1 x215 +1 x222 +1 x229 +1 x236 +1 x243 +1 x250 +1 x257 +1 x264 +1 x271 +1 x278 +1 x285 +1 x292 +1 x299 +1 x306 >= 9;
-1 x180 -1 x187 -1 x194 -1 x201 -1 x208 -1 x215 -1 x222 -1 x229 -1 x236 -1 x243 -1 x250 -1 x257 -1 x264 -1 x271 -1 x278 -1 x285 -1 x292 -1 x299 -1 x306 >= -10;
+1 x181 +1 x188 +1 x195 +1 x202 +1 x209 +1 x216 +1 x223 +1 x230 +1 x237 +1 x244 +1 x251 +1 x258 +1 x265 +1 x272 +1 x279 +1 x286 +1 x293 +1 x300 +1 x307 >= 9;
-1 x181 -1 x188 -1 x195 -1 x202 -1 x209 -1 x216 -1 x223 -1 x230 -1 x237 -1 x244 -1 x251 -1 x258 -1 x265 -1 x272 -1 x279 -1 x286 -1 x293 -1 x300 -1 x307 >= -10;
+1 x182 +1 x189 +1 x196 +1 x203 +1 x210 +1 x217 +1 x224 +1 x231 +1 x238 +1 x245 +1 x252 +1 x259 +1 x266 +1 x273 +1 x280 +1 x287 +1 x294 +1 x301 +1 x308 >= 9;
-1 x182 -1 x189 -1 x196 -1 x203 -1 x210 -1 x217 -1 x224 -1 x231 -1 x238 -1 x245 -1 x252 -1 x259 -1 x266 -1 x273 -1 x280 -1 x287 -1 x294 -1 x301 -1 x308 >= -10;
+1 x183 +1 x190 +1 x197 +1 x204 +1 x211 +1 x218 +1 x225 +1 x232 +1 x239 +1 x246 +1 x253 +1 x260 +1 x267 +1 x274 +1 x281 +1 x288 +1 x295 +1 x302 +1 x309 >= 9;
-1 x183 -1 x190 -1 x197 -1 x204 -1 x211 -1 x218 -1 x225 -1 x232 -1 x239 -1 x246 -1 x253 -1 x260 -1 x267 -1 x274 -1 x281 -1 x288 -1 x295 -1 x302 -1 x309 >= -10;
+1 x184 +1 x191 +1 x198 +1 x205 +1 x212 +1 x219 +1 x226 +1 x233 +1 x240 +1 x247 +1 x254 +1 x261 +1 x268 +1 x275 +1 x282 +1 x289 +1 x296 +1 x303 +1 x310 >= 9;
-1 x184 -1 x191 -1 x198 -1 x205 -1 x212 -1 x219 -1 x226 -1 x233 -1 x240 -1 x247 -1 x254 -1 x261 -1 x268 -1 x275 -1 x282 -1 x289 -1 x296 -1 x303 -1 x310 >= -10;
+1 x185 +1 x192 +1 x199 +1 x206 +1 x213 +1 x220 +1 x227 +1 x234 +1 x241 +1 x248 +1 x255 +1 x262 +1 x269 +1 x276 +1 x283 +1 x290 +1 x297 +1 x304 +1 x311 >= 9;
-1 x185 -1 x192 -1 x199 -1 x206 -1 x213 -1 x220 -1 x227 -1 x234 -1 x241 -1 x248 -1 x255 -1 x262 -1 x269 -1 x276 -1 x283 -1 x290 -1 x297 -1 x304 -1 x311 >= -10;
+1 x186 +1 x193 +1 x200 +1 x207 +1 x214 +1 x221 +1 x228 +1 x235 +1 x242 +1 x249 +1 x256 +1 x263 +1 x270 +1 x277 +1 x284 +1 x291 +1 x298 +1 x305 +1 x312 >= 9;
-1 x186 -1 x193 -1 x200 -1 x207 -1 x214 -1 x221 -1 x228 -1 x235 -1 x242 -1 x249 -1 x256 -1 x263 -1 x270 -1 x277 -1 x284 -1 x291 -1 x298 -1 x305 -1 x312 >= -10;
+1 x187 +1 x194 +1 x201 +1 x208 +1 x215 +1 x222 +1 x229 +1 x236 +1 x243 +1 x250 +1 x257 +1 x264 +1 x271 +1 x278 +1 x285 +1 x292 +1 x299 +1 x306 +1 x313 >= 9;
-1 x187 -1 x194 -1 x201 -1 x208 -1 x215 -1 x222 -1 x229 -1 x236 -1 x243 -1 x250 -1 x257 -1 x264 -1 x271 -1 x278 -1 x285 -1 x292 -1 x299 -1 x306 -1 x313 >= -10;
+1 x188 +1 x195 +1 x202 +1 x209 +1 x216 +1 x223 +1 x230 +1 x237 +1 x244 +1 x251 +1 x258 +1 x265 +1 x272 +1 x279 +1 x286 +1 x293 +1 x300 +1 x307 +1 x314 >= 9;
-1 x188 -1 x195 -1 x202 -1 x209 -1 x216 -1 x223 -1 x230 -1 x237 -1 x244 -1 x251 -1 x258 -1 x265 -1 x272 -1 x279 -1 x286 -1 x293 -1 x300 -1 x307 -1 x314 >= -10;
+1 x189 +1 x196 +1 x203 +1 x210 +1 x217 +1 x224 +1 x231 +1 x238 +1 x245 +1 x252 +1 x259 +1 x266 +1 x273 +1 x280 +1 x287 +1 x294 +1 x301 +1 x308 +1 x315 >= 9;
-1 x189 -1 x196 -1 x203 -1 x210 -1 x217 -1 x224 -1 x231 -1 x238 -1 x245 -1 x252 -1 x259 -1 x266 -1 x273 -1 x280 -1 x287 -1 x294 -1 x301 -1 x308 -1 x315 >= -10;
+1 x190 +1 x197 +1 x204 +1 x211 +1 x218 +1 x225 +1 x232 +1 x239 +1 x246 +1 x253 +1 x260 +1 x267 +1 x274 +1 x281 +1 x288 +1 x295 +1 x302 +1 x309 +1 x316 >= 9;
-1 x190 -1 x197 -1 x204 -1 x211 -1 x218 -1 x225 -1 x232 -1 x239 -1 x246 -1 x253 -1 x260 -1 x267 -1 x274 -1 x281 -1 x288 -1 x295 -1 x302 -1 x309 -1 x316 >= -10;
+1 x191 +1 x198 +1 x205 +1 x212 +1 x219 +1 x226 +1 x233 +1 x240 +1 x247 +1 x254 +1 x261 +1 x268 +1 x275 +1 x282 +1 x289 +1 x296 +1 x303 +1 x310 +1 x317 >= 9;
-1 x191 -1 x198 -1 x205 -1 x212 -1 x219 -1 x226 -1 x233 -1 x240 -1 x247 -1 x254 -1 x261 -1 x268 -1 x275 -1 x282 -1 x289 -1 x296 -1 x303 -1 x310 -1 x317 >= -10;
+1 x192 +1 x199 +1 x206 +1 x213 +1 x220 +1 x227 +1 x234 +1 x241 +1 x248 +1 x255 +1 x262 +1 x269 +1 x276 +1 x283 +1 x290 +1 x297 +1 x304 +1 x311 +1 x318 >= 9;
-1 x192 -1 x199 -1 x206 -1 x213 -1 x220 -1 x227 -1 x234 -1 x241 -1 x248 -1 x255 -1 x262 -1 x269 -1 x276 -1 x283 -1 x290 -1 x297 -1 x304 -1 x311 -1 x318 >= -10;
+1 x193 +1 x200 +1 x207 +1 x214 +1 x221 +1 x228 +1 x235 +1 x242 +1 x249 +1 x256 +1 x263 +1 x270 +1 x277 +1 x284 +1 x291 +1 x298 +1 x305 +1 x312 +1 x319 >= 9;
-1 x193 -1 x200 -1 x207 -1 x214 -1 x221 -1 x228 -1 x235 -1 x242 -1 x249 -1 x256 -1 x263 -1 x270 -1 x277 -1 x284 -1 x291 -1 x298 -1 x305 -1 x312 -1 x319 >= -10;
+1 x194 +1 x201 +1 x208 +1 x215 +1 x222 +1 x229 +1 x236 +1 x243 +1 x250 +1 x257 +1 x264 +1 x271 +1 x278 +1 x285 +1 x292 +1 x299 +1 x306 +1 x313 +1 x320 >= 9;
-1 x194 -1 x201 -1 x208 -1 x215 -1 x222 -1 x229 -1 x236 -1 x243 -1 x250 -1 x257 -1 x264 -1 x271 -1 x278 -1 x285 -1 x292 -1 x299 -1 x306 -1 x313 -1 x320 >= -10;
+1 x195 +1 x202 +1 x209 +1 x216 +1 x223 +1 x230 +1 x237 +1 x244 +1 x251 +1 x258 +1 x265 +1 x272 +1 x279 +1 x286 +1 x293 +1 x300 +1 x307 +1 x314 +1 x321 >= 9;
-1 x195 -1 x202 -1 x209 -1 x216 -1 x223 -1 x230 -1 x237 -1 x244 -1 x251 -1 x258 -1 x265 -1 x272 -1 x279 -1 x286 -1 x293 -1 x300 -1 x307 -1 x314 -1 x321 >= -10;
+1 x196 +1 x203 +1 x210 +1 x217 +1 x224 +1 x231 +1 x238 +1 x245 +1 x252 +1 x259 +1 x266 +1 x273 +1 x280 +1 x287 +1 x294 +1 x301 +1 x308 +1 x315 +1 x322 >= 9;
-1 x196 -1 x203 -1 x210 -1 x217 -1 x224 -1 x231 -1 x238 -1 x245 -1 x252 -1 x259 -1 x266 -1 x273 -1 x280 -1 x287 -1 x294 -1 x301 -1 x308 -1 x315 -1 x322 >= -10;
+1 x197 +1 x204 +1 x211 +1 x218 +1 x225 +1 x232 +1 x239 +1 x246 +1 x253 +1 x260 +1 x267 +1 x274 +1 x281 +1 x288 +1 x295 +1 x302 +1 x309 +1 x316 +1 x323 >= 9;
-1 x197 -1 x204 -1 x211 -1 x218 -1 x225 -1 x232 -1 x239 -1 x246 -1 x253 -1 x260 -1 x267 -1 x274 -1 x281 -1 x288 -1 x295 -1 x302 -1 x309 -1 x316 -1 x323 >= -10;
+1 x198 +1 x205 +1 x212 +1 x219 +1 x226 +1 x233 +1 x240 +1 x247 +1 x254 +1 x261 +1 x268 +1 x275 +1 x282 +1 x289 +1 x296 +1 x303 +1 x310 +1 x317 +1 x324 >= 9;
-1 x198 -1 x205 -1 x212 -1 x219 -1 x226 -1 x233 -1 x240 -1 x247 -1 x254 -1 x261 -1 x268 -1 x275 -1 x282 -1 x289 -1 x296 -1 x303 -1 x310 -1 x317 -1 x324 >= -10;
+1 x199 +1 x206 +1 x213 +1 x220 +1 x227 +1 x234 +1 x241 +1 x248 +1 x255 +1 x262 +1 x269 +1 x276 +1 x283 +1 x290 +1 x297 +1 x304 +1 x311 +1 x318 +1 x325 >= 9;
-1 x199 -1 x206 -1 x213 -1 x220 -1 x227 -1 x234 -1 x241 -1 x248 -1 x255 -1 x262 -1 x269 -1 x276 -1 x283 -1 x290 -1 x297 -1 x304 -1 x311 -1 x318 -1 x325 >= -10;
+1 x200 +1 x207 +1 x214 +1 x221 +1 x228 +1 x235 +1 x242 +1 x249 +1 x256 +1 x263 +1 x270 +1 x277 +1 x284 +1 x291 +1 x298 +1 x305 +1 x312 +1 x319 +1 x326 >= 9;
-1 x200 -1 x207 -1 x214 -1 x221 -1 x228 -1 x235 -1 x242 -1 x249 -1 x256 -1 x263 -1 x270 -1 x277 -1 x284 -1 x291 -1 x298 -1 x305 -1 x312 -1 x319 -1 x326 >= -10;
+1 x201 +1 x208 +1 x215 +1 x222 +1 x229 +1 x236 +1 x243 +1 x250 +1 x257 +1 x264 +1 x271 +1 x278 +1 x285 +1 x292 +1 x299 +1 x306 +1 x313 +1 x320 +1 x327 >= 9;
-1 x201 -1 x208 -1 x215 -1 x222 -1 x229 -1 x236 -1 x243 -1 x250 -1 x257 -1 x264 -1 x271 -1 x278 -1 x285 -1 x292 -1 x299 -1 x306 -1 x313 -1 x320 -1 x327 >= -10;
+1 x202 +1 x209 +1 x216 +1 x223 +1 x230 +1 x237 +1 x244 +1 x251 +1 x258 +1 x265 +1 x272 +1 x279 +1 x286 +1 x293 +1 x300 +1 x307 +1 x314 +1 x321 +1 x328 >= 9;
-1 x202 -1 x209 -1 x216 -1 x223 -1 x230 -1 x237 -1 x244 -1 x251 -1 x258 -1 x265 -1 x272 -1 x279 -1 x286 -1 x293 -1 x300 -1 x307 -1 x314 -1 x321 -1 x328 >= -10;
+1 x203 +1 x210 +1 x217 +1 x224 +1 x231 +1 x238 +1 x245 +1 x252 +1 x259 +1 x266 +1 x273 +1 x280 +1 x287 +1 x294 +1 x301 +1 x308 +1 x315 +1 x322 +1 x329 >= 9;
-1 x203 -1 x210 -1 x217 -1 x224 -1 x231 -1 x238 -1 x245 -1 x252 -1 x259 -1 x266 -1 x273 -1 x280 -1 x287 -1 x294 -1 x301 -1 x308 -1 x315 -1 x322 -1 x329 >= -10;
+1 x204 +1 x211 +1 x218 +1 x225 +1 x232 +1 x239 +1 x246 +1 x253 +1 x260 +1 x267 +1 x274 +1 x281 +1 x288 +1 x295 +1 x302 +1 x309 +1 x316 +1 x323 +1 x330 >= 9;
-1 x204 -1 x211 -1 x218 -1 x225 -1 x232 -1 x239 -1 x246 -1 x253 -1 x260 -1 x267 -1 x274 -1 x281 -1 x288 -1 x295 -1 x302 -1 x309 -1 x316 -1 x323 -1 x330 >= -10;
+1 x205 +1 x212 +1 x219 +1 x226 +1 x233 +1 x240 +1 x247 +1 x254 +1 x261 +1 x268 +1 x275 +1 x282 +1 x289 +1 x296 +1 x303 +1 x310 +1 x317 +1 x324 +1 x331 >= 9;
-1 x205 -1 x212 -1 x219 -1 x226 -1 x233 -1 x240 -1 x247 -1 x254 -1 x261 -1 x268 -1 x275 -1 x282 -1 x289 -1 x296 -1 x303 -1 x310 -1 x317 -1 x324 -1 x331 >= -10;
+1 x206 +1 x213 +1 x220 +1 x227 +1 x234 +1 x241 +1 x248 +1 x255 +1 x262 +1 x269 +1 x276 +1 x283 +1 x290 +1 x297 +1 x304 +1 x311 +1 x318 +1 x325 +1 x332 >= 9;
-1 x206 -1 x213 -1 x220 -1 x227 -1 x234 -1 x241 -1 x248 -1 x255 -1 x262 -1 x269 -1 x276 -1 x283 -1 x290 -1 x297 -1 x304 -1 x311 -1 x318 -1 x325 -1 x332 >= -10;
+1 x207 +1 x214 +1 x221 +1 x228 +1 x235 +1 x242 +1 x249 +1 x256 +1 x263 +1 x270 +1 x277 +1 x284 +1 x291 +1 x298 +1 x305 +1 x312 +1 x319 +1 x326 +1 x333 >= 9;
-1 x207 -1 x214 -1 x221 -1 x228 -1 x235 -1 x242 -1 x249 -1 x256 -1 x263 -1 x270 -1 x277 -1 x284 -1 x291 -1 x298 -1 x305 -1 x312 -1 x319 -1 x326 -1 x333 >= -10;
+1 x208 +1 x215 +1 x222 +1 x229 +1 x236 +1 x243 +1 x250 +1 x257 +1 x264 +1 x271 +1 x278 +1 x285 +1 x292 +1 x299 +1 x306 +1 x313 +1 x320 +1 x327 +1 x334 >= 9;
-1 x208 -1 x215 -1 x222 -1 x229 -1 x236 -1 x243 -1 x250 -1 x257 -1 x264 -1 x271 -1 x278 -1 x285 -1 x292 -1 x299 -1 x306 -1 x313 -1 x320 -1 x327 -1 x334 >= -10;
+1 x209 +1 x216 +1 x223 +1 x230 +1 x237 +1 x244 +1 x251 +1 x258 +1 x265 +1 x272 +1 x279 +1 x286 +1 x293 +1 x300 +1 x307 +1 x314 +1 x321 +1 x328 +1 x335 >= 9;
-1 x209 -1 x216 -1 x223 -1 x230 -1 x237 -1 x244 -1 x251 -1 x258 -1 x265 -1 x272 -1 x279 -1 x286 -1 x293 -1 x300 -1 x307 -1 x314 -1 x321 -1 x328 -1 x335 >= -10;
+1 x210 +1 x217 +1 x224 +1 x231 +1 x238 +1 x245 +1 x252 +1 x259 +1 x266 +1 x273 +1 x280 +1 x287 +1 x294 +1 x301 +1 x308 +1 x315 +1 x322 +1 x329 +1 x336 >= 9;
-1 x210 -1 x217 -1 x224 -1 x231 -1 x238 -1 x245 -1 x252 -1 x259 -1 x266 -1 x273 -1 x280 -1 x287 -1 x294 -1 x301 -1 x308 -1 x315 -1 x322 -1 x329 -1 x336 >= -10;
+1 x211 +1 x218 +1 x225 +1 x232 +1 x239 +1 x246 +1 x253 +1 x260 +1 x267 +1 x274 +1 x281 +1 x288 +1 x295 +1 x302 +1 x309 +1 x316 +1 x323 +1 x330 +1 x337 >= 9;
-1 x211 -1 x218 -1 x225 -1 x232 -1 x239 -1 x246 -1 x253 -1 x260 -1 x267 -1 x274 -1 x281 -1 x288 -1 x295 -1 x302 -1 x309 -1 x316 -1 x323 -1 x330 -1 x337 >= -10;
+1 x212 +1 x219 +1 x226 +1 x233 +1 x240 +1 x247 +1 x254 +1 x261 +1 x268 +1 x275 +1 x282 +1 x289 +1 x296 +1 x303 +1 x310 +1 x317 +1 x324 +1 x331 +1 x338 >= 9;
-1 x212 -1 x219 -1 x226 -1 x233 -1 x240 -1 x247 -1 x254 -1 x261 -1 x268 -1 x275 -1 x282 -1 x289 -1 x296 -1 x303 -1 x310 -1 x317 -1 x324 -1 x331 -1 x338 >= -10;
+1 x213 +1 x220 +1 x227 +1 x234 +1 x241 +1 x248 +1 x255 +1 x262 +1 x269 +1 x276 +1 x283 +1 x290 +1 x297 +1 x304 +1 x311 +1 x318 +1 x325 +1 x332 +1 x339 >= 9;
-1 x213 -1 x220 -1 x227 -1 x234 -1 x241 -1 x248 -1 x255 -1 x262 -1 x269 -1 x276 -1 x283 -1 x290 -1 x297 -1 x304 -1 x311 -1 x318 -1 x325 -1 x332 -1 x339 >= -10;
+1 x214 +1 x221 +1 x228 +1 x235 +1 x242 +1 x249 +1 x256 +1 x263 +1 x270 +1 x277 +1 x284 +1 x291 +1 x298 +1 x305 +1 x312 +1 x319 +1 x326 +1 x333 +1 x340 >= 9;
-1 x214 -1 x221 -1 x228 -1 x235 -1 x242 -1 x249 -1 x256 -1 x263 -1 x270 -1 x277 -1 x284 -1 x291 -1 x298 -1 x305 -1 x312 -1 x319 -1 x326 -1 x333 -1 x340 >= -10;
+1 x215 +1 x222 +1 x229 +1 x236 +1 x243 +1 x250 +1 x257 +1 x264 +1 x271 +1 x278 +1 x285 +1 x292 +1 x299 +1 x306 +1 x313 +1 x320 +1 x327 +1 x334 +1 x341 >= 9;
-1 x215 -1 x222 -1 x229 -1 x236 -1 x243 -1 x250 -1 x257 -1 x264 -1 x271 -1 x278 -1 x285 -1 x292 -1 x299 -1 x306 -1 x313 -1 x320 -1 x327 -1 x334 -1 x341 >= -10;
+1 x216 +1 x223 +1 x230 +1 x237 +1 x244 +1 x251 +1 x258 +1 x265 +1 x272 +1 x279 +1 x286 +1 x293 +1 x300 +1 x307 +1 x314 +1 x321 +1 x328 +1 x335 +1 x342 >= 9;
-1 x216 -1 x223 -1 x230 -1 x237 -1 x244 -1 x251 -1 x258 -1 x265 -1 x272 -1 x279 -1 x286 -1 x293 -1 x300 -1 x307 -1 x314 -1 x321 -1 x328 -1 x335 -1 x342 >= -10;
+1 x217 +1 x224 +1 x231 +1 x238 +1 x245 +1 x252 +1 x259 +1 x266 +1 x273 +1 x280 +1 x287 +1 x294 +1 x301 +1 x308 +1 x315 +1 x322 +1 x329 +1 x336 +1 x343 >= 9;
-1 x217 -1 x224 -1 x231 -1 x238 -1 x245 -1 x252 -1 x259 -1 x266 -1 x273 -1 x280 -1 x287 -1 x294 -1 x301 -1 x308 -1 x315 -1 x322 -1 x329 -1 x336 -1 x343 >= -10;
+1 x218 +1 x225 +1 x232 +1 x239 +1 x246 +1 x253 +1 x260 +1 x267 +1 x274 +1 x281 +1 x288 +1 x295 +1 x302 +1 x309 +1 x316 +1 x323 +1 x330 +1 x337 +1 x344 >= 9;
-1 x218 -1 x225 -1 x232 -1 x239 -1 x246 -1 x253 -1 x260 -1 x267 -1 x274 -1 x281 -1 x288 -1 x295 -1 x302 -1 x309 -1 x316 -1 x323 -1 x330 -1 x337 -1 x344 >= -10;
+1 x1 +1 x9 +1 x17 +1 x25 +1 x33 +1 x41 +1 x49 +1 x57 +1 x65 +1 x73 +1 x81 +1 x89 +1 x97 +1 x105 +1 x113 +1 x121 +1 x129 +1 x137 +1 x145 >= 9;
-1 x1 -1 x9 -1 x17 -1 x25 -1 x33 -1 x41 -1 x49 -1 x57 -1 x65 -1 x73 -1 x81 -1 x89 -1 x97 -1 x105 -1 x113 -1 x121 -1 x129 -1 x137 -1 x145 >= -10;
+1 x2 +1 x10 +1 x18 +1 x26 +1 x34 +1 x42 +1 x50 +1 x58 +1 x66 +1 x74 +1 x82 +1 x90 +1 x98 +1 x106 +1 x114 +1 x122 +1 x130 +1 x138 +1 x146 >= 9;
-1 x2 -1 x10 -1 x18 -1 x26 -1 x34 -1 x42 -1 x50 -1 x58 -1 x66 -1 x74 -1 x82 -1 x90 -1 x98 -1 x106 -1 x114 -1 x122 -1 x130 -1 x138 -1 x146 >= -10;
+1 x3 +1 x11 +1 x19 +1 x27 +1 x35 +1 x43 +1 x51 +1 x59 +1 x67 +1 x75 +1 x83 +1 x91 +1 x99 +1 x107 +1 x115 +1 x123 +1 x131 +1 x139 +1 x147 >= 9;
-1 x3 -1 x11 -1 x19 -1 x27 -1 x35 -1 x43 -1 x51 -1 x59 -1 x67 -1 x75 -1 x83 -1 x91 -1 x99 -1 x107 -1 x115 -1 x123 -1 x131 -1 x139 -1 x147 >= -10;
+1 x4 +1 x12 +1 x20 +1 x28 +1 x36 +1 x44 +1 x52 +1 x60 +1 x68 +1 x76 +1 x84 +1 x92 +1 x100 +1 x108 +1 x116 +1 x124 +1 x132 +1 x140 +1 x148 >= 9;
-1 x4 -1 x12 -1 x20 -1 x28 -1 x36 -1 x44 -1 x52 -1 x60 -1 x68 -1 x76 -1 x84 -1 x92 -1 x100 -1 x108 -1 x116 -1 x124 -1 x132 -1 x140 -1 x148 >= -10;
+1 x5 +1 x13 +1 x21 +1 x29 +1 x37 +1 x45 +1 x53 +1 x61 +1 x69 +1 x77 +1 x85 +1 x93 +1 x101 +1 x109 +1 x117 +1 x125 +1 x133 +1 x141 +1 x149 >= 9;
-1 x5 -1 x13 -1 x21 -1 x29 -1 x37 -1 x45 -1 x53 -1 x61 -1 x69 -1 x77 -1 x85 -1 x93 -1 x101 -1 x109 -1 x117 -1 x125 -1 x133 -1 x141 -1 x149 >= -10;
+1 x6 +1 x14 +1 x22 +1 x30 +1 x38 +1 x46 +1 x54 +1 x62 +1 x70 +1 x78 +1 x86 +1 x94 +1 x102 +1 x110 +1 x118 +1 x126 +1 x134 +1 x142 +1 x150 >= 9;
-1 x6 -1 x14 -1 x22 -1 x30 -1 x38 -1 x46 -1 x54 -1 x62 -1 x70 -1 x78 -1 x86 -1 x94 -1 x102 -1 x110 -1 x118 -1 x126 -1 x134 -1 x142 -1 x150 >= -10;
+1 x7 +1 x15 +1 x23 +1 x31 +1 x39 +1 x47 +1 x55 +1 x63 +1 x71 +1 x79 +1 x87 +1 x95 +1 x103 +1 x111 +1 x119 +1 x127 +1 x135 +1 x143 +1 x151 >= 9;
-1 x7 -1 x15 -1 x23 -1 x31 -1 x39 -1 x47 -1 x55 -1 x63 -1 x71 -1 x79 -1 x87 -1 x95 -1 x103 -1 x111 -1 x119 -1 x127 -1 x135 -1 x143 -1 x151 >= -10;
+1 x8 +1 x16 +1 x24 +1 x32 +1 x40 +1 x48 +1 x56 +1 x64 +1 x72 +1 x80 +1 x88 +1 x96 +1 x104 +1 x112 +1 x120 +1 x128 +1 x136 +1 x144 +1 x152 >= 9;
-1 x8 -1 x16 -1 x24 -1 x32 -1 x40 -1 x48 -1 x56 -1 x64 -1 x72 -1 x80 -1 x88 -1 x96 -1 x104 -1 x112 -1 x120 -1 x128 -1 x136 -1 x144 -1 x152 >= -10;
+1 x9 +1 x17 +1 x25 +1 x33 +1 x41 +1 x49 +1 x57 +1 x65 +1 x73 +1 x81 +1 x89 +1 x97 +1 x105 +1 x113 +1 x121 +1 x129 +1 x137 +1 x145 +1 x153 >= 9;
-1 x9 -1 x17 -1 x25 -1 x33 -1 x41 -1 x49 -1 x57 -1 x65 -1 x73 -1 x81 -1 x89 -1 x97 -1 x105 -1 x113 -1 x121 -1 x129 -1 x137 -1 x145 -1 x153 >= -10;
+1 x10 +1 x18 +1 x26 +1 x34 +1 x42 +1 x50 +1 x58 +1 x66 +1 x74 +1 x82 +1 x90 +1 x98 +1 x106 +1 x114 +1 x122 +1 x130 +1 x138 +1 x146 +1 x154 >= 9;
-1 x10 -1 x18 -1 x26 -1 x34 -1 x42 -1 x50 -1 x58 -1 x66 -1 x74 -1 x82 -1 x90 -1 x98 -1 x106 -1 x114 -1 x122 -1 x130 -1 x138 -1 x146 -1 x154 >= -10;
+1 x11 +1 x19 +1 x27 +1 x35 +1 x43 +1 x51 +1 x59 +1 x67 +1 x75 +1 x83 +1 x91 +1 x99 +1 x107 +1 x115 +1 x123 +1 x131 +1 x139 +1 x147 +1 x155 >= 9;
-1 x11 -1 x19 -1 x27 -1 x35 -1 x43 -1 x51 -1 x59 -1 x67 -1 x75 -1 x83 -1 x91 -1 x99 -1 x107 -1 x115 -1 x123 -1 x131 -1 x139 -1 x147 -1 x155 >= -10;
+1 x12 +1 x20 +1 x28 +1 x36 +1 x44 +1 x52 +1 x60 +1 x68 +1 x76 +1 x84 +1 x92 +1 x100 +1 x108 +1 x116 +1 x124 +1 x132 +1 x140 +1 x148 +1 x156 >= 9;
-1 x12 -1 x20 -1 x28 -1 x36 -1 x44 -1 x52 -1 x60 -1 x68 -1 x76 -1 x84 -1 x92 -1 x100 -1 x108 -1 x116 -1 x124 -1 x132 -1 x140 -1 x148 -1 x156 >= -10;
+1 x13 +1 x21 +1 x29 +1 x37 +1 x45 +1 x53 +1 x61 +1 x69 +1 x77 +1 x85 +1 x93 +1 x101 +1 x109 +1 x117 +1 x125 +1 x133 +1 x141 +1 x149 +1 x157 >= 9;
-1 x13 -1 x21 -1 x29 -1 x37 -1 x45 -1 x53 -1 x61 -1 x69 -1 x77 -1 x85 -1 x93 -1 x101 -1 x109 -1 x117 -1 x125 -1 x133 -1 x141 -1 x149 -1 x157 >= -10;
+1 x14 +1 x22 +1 x30 +1 x38 +1 x46 +1 x54 +1 x62 +1 x70 +1 x78 +1 x86 +1 x94 +1 x102 +1 x110 +1 x118 +1 x126 +1 x134 +1 x142 +1 x150 +1 x158 >= 9;
-1 x14 -1 x22 -1 x30 -1 x38 -1 x46 -1 x54 -1 x62 -1 x70 -1 x78 -1 x86 -1 x94 -1 x102 -1 x110 -1 x118 -1 x126 -1 x134 -1 x142 -1 x150 -1 x158 >= -10;
+1 x15 +1 x23 +1 x31 +1 x39 +1 x47 +1 x55 +1 x63 +1 x71 +1 x79 +1 x87 +1 x95 +1 x103 +1 x111 +1 x119 +1 x127 +1 x135 +1 x143 +1 x151 +1 x159 >= 9;
-1 x15 -1 x23 -1 x31 -1 x39 -1 x47 -1 x55 -1 x63 -1 x71 -1 x79 -1 x87 -1 x95 -1 x103 -1 x111 -1 x119 -1 x127 -1 x135 -1 x143 -1 x151 -1 x159 >= -10;
+1 x16 +1 x24 +1 x32 +1 x40 +1 x48 +1 x56 +1 x64 +1 x72 +1 x80 +1 x88 +1 x96 +1 x104 +1 x112 +1 x120 +1 x128 +1 x136 +1 x144 +1 x152 +1 x160 >= 9;
-1 x16 -1 x24 -1 x32 -1 x40 -1 x48 -1 x56 -1 x64 -1 x72 -1 x80 -1 x88 -1 x96 -1 x104 -1 x112 -1 x120 -1 x128 -1 x136 -1 x144 -1 x152 -1 x160 >= -10;
+1 x17 +1 x25 +1 x33 +1 x41 +1 x49 +1 x57 +1 x65 +1 x73 +1 x81 +1 x89 +1 x97 +1 x105 +1 x113 +1 x121 +1 x129 +1 x137 +1 x145 +1 x153 +1 x161 >= 9;
-1 x17 -1 x25 -1 x33 -1 x41 -1 x49 -1 x57 -1 x65 -1 x73 -1 x81 -1 x89 -1 x97 -1 x105 -1 x113 -1 x121 -1 x129 -1 x137 -1 x145 -1 x153 -1 x161 >= -10;
+1 x18 +1 x26 +1 x34 +1 x42 +1 x50 +1 x58 +1 x66 +1 x74 +1 x82 +1 x90 +1 x98 +1 x106 +1 x114 +1 x122 +1 x130 +1 x138 +1 x146 +1 x154 +1 x162 >= 9;
-1 x18 -1 x26 -1 x34 -1 x42 -1 x50 -1 x58 -1 x66 -1 x74 -1 x82 -1 x90 -1 x98 -1 x106 -1 x114 -1 x122 -1 x130 -1 x138 -1 x146 -1 x154 -1 x162 >= -10;
+1 x19 +1 x27 +1 x35 +1 x43 +1 x51 +1 x59 +1 x67 +1 x75 +1 x83 +1 x91 +1 x99 +1 x107 +1 x115 +1 x123 +1 x131 +1 x139 +1 x147 +1 x155 +1 x163 >= 9;
-1 x19 -1 x27 -1 x35 -1 x43 -1 x51 -1 x59 -1 x67 -1 x75 -1 x83 -1 x91 -1 x99 -1 x107 -1 x115 -1 x123 -1 x131 -1 x139 -1 x147 -1 x155 -1 x163 >= -10;
+1 x20 +1 x28 +1 x36 +1 x44 +1 x52 +1 x60 +1 x68 +1 x76 +1 x84 +1 x92 +1 x100 +1 x108 +1 x116 +1 x124 +1 x132 +1 x140 +1 x148 +1 x156 +1 x164 >= 9;
-1 x20 -1 x28 -1 x36 -1 x44 -1 x52 -1 x60 -1 x68 -1 x76 -1 x84 -1 x92 -1 x100 -1 x108 -1 x116 -1 x124 -1 x132 -1 x140 -1 x148 -1 x156 -1 x164 >= -10;
+1 x21 +1 x29 +1 x37 +1 x45 +1 x53 +1 x61 +1 x69 +1 x77 +1 x85 +1 x93 +1 x101 +1 x109 +1 x117 +1 x125 +1 x133 +1 x141 +1 x149 +1 x157 +1 x165 >= 9;
-1 x21 -1 x29 -1 x37 -1 x45 -1 x53 -1 x61 -1 x69 -1 x77 -1 x85 -1 x93 -1 x101 -1 x109 -1 x117 -1 x125 -1 x133 -1 x141 -1 x149 -1 x157 -1 x165 >= -10;
+1 x22 +1 x30 +1 x38 +1 x46 +1 x54 +1 x62 +1 x70 +1 x78 +1 x86 +1 x94 +1 x102 +1 x110 +1 x118 +1 x126 +1 x134 +1 x142 +1 x150 +1 x158 +1 x166 >= 9;
-1 x22 -1 x30 -1 x38 -1 x46 -1 x54 -1 x62 -1 x70 -1 x78 -1 x86 -1 x94 -1 x102 -1 x110 -1 x118 -1 x126 -1 x134 -1 x142 -1 x150 -1 x158 -1 x166 >= -10;
+1 x23 +1 x31 +1 x39 +1 x47 +1 x55 +1 x63 +1 x71 +1 x79 +1 x87 +1 x95 +1 x103 +1 x111 +1 x119 +1 x127 +1 x135 +1 x143 +1 x151 +1 x159 +1 x167 >= 9;
-1 x23 -1 x31 -1 x39 -1 x47 -1 x55 -1 x63 -1 x71 -1 x79 -1 x87 -1 x95 -1 x103 -1 x111 -1 x119 -1 x127 -1 x135 -1 x143 -1 x151 -1 x159 -1 x167 >= -10;
+1 x24 +1 x32 +1 x40 +1 x48 +1 x56 +1 x64 +1 x72 +1 x80 +1 x88 +1 x96 +1 x104 +1 x112 +1 x120 +1 x128 +1 x136 +1 x144 +1 x152 +1 x160 +1 x168 >= 9;
-1 x24 -1 x32 -1 x40 -1 x48 -1 x56 -1 x64 -1 x72 -1 x80 -1 x88 -1 x96 -1 x104 -1 x112 -1 x120 -1 x128 -1 x136 -1 x144 -1 x152 -1 x160 -1 x168 >= -10;
+1 x25 +1 x33 +1 x41 +1 x49 +1 x57 +1 x65 +1 x73 +1 x81 +1 x89 +1 x97 +1 x105 +1 x113 +1 x121 +1 x129 +1 x137 +1 x145 +1 x153 +1 x161 +1 x169 >= 9;
-1 x25 -1 x33 -1 x41 -1 x49 -1 x57 -1 x65 -1 x73 -1 x81 -1 x89 -1 x97 -1 x105 -1 x113 -1 x121 -1 x129 -1 x137 -1 x145 -1 x153 -1 x161 -1 x169 >= -10;
+1 x26 +1 x34 +1 x42 +1 x50 +1 x58 +1 x66 +1 x74 +1 x82 +1 x90 +1 x98 +1 x106 +1 x114 +1 x122 +1 x130 +1 x138 +1 x146 +1 x154 +1 x162 +1 x170 >= 9;
-1 x26 -1 x34 -1 x42 -1 x50 -1 x58 -1 x66 -1 x74 -1 x82 -1 x90 -1 x98 -1 x106 -1 x114 -1 x122 -1 x130 -1 x138 -1 x146 -1 x154 -1 x162 -1 x170 >= -10;
+1 x27 +1 x35 +1 x43 +1 x51 +1 x59 +1 x67 +1 x75 +1 x83 +1 x91 +1 x99 +1 x107 +1 x115 +1 x123 +1 x131 +1 x139 +1 x147 +1 x155 +1 x163 +1 x171 >= 9;
-1 x27 -1 x35 -1 x43 -1 x51 -1 x59 -1 x67 -1 x75 -1 x83 -1 x91 -1 x99 -1 x107 -1 x115 -1 x123 -1 x131 -1 x139 -1 x147 -1 x155 -1 x163 -1 x171 >= -10;
+1 x28 +1 x36 +1 x44 +1 x52 +1 x60 +1 x68 +1 x76 +1 x84 +1 x92 +1 x100 +1 x108 +1 x116 +1 x124 +1 x132 +1 x140 +1 x148 +1 x156 +1 x164 +1 x172 >= 9;
-1 x28 -1 x36 -1 x44 -1 x52 -1 x60 -1 x68 -1 x76 -1 x84 -1 x92 -1 x100 -1 x108 -1 x116 -1 x124 -1 x132 -1 x140 -1 x148 -1 x156 -1 x164 -1 x172 >= -10;
+1 x29 +1 x37 +1 x45 +1 x53 +1 x61 +1 x69 +1 x77 +1 x85 +1 x93 +1 x101 +1 x109 +1 x117 +1 x125 +1 x133 +1 x141 +1 x149 +1 x157 +1 x165 +1 x173 >= 9;
-1 x29 -1 x37 -1 x45 -1 x53 -1 x61 -1 x69 -1 x77 -1 x85 -1 x93 -1 x101 -1 x109 -1 x117 -1 x125 -1 x133 -1 x141 -1 x149 -1 x157 -1 x165 -1 x173 >= -10;
+1 x30 +1 x38 +1 x46 +1 x54 +1 x62 +1 x70 +1 x78 +1 x86 +1 x94 +1 x102 +1 x110 +1 x118 +1 x126 +1 x134 +1 x142 +1 x150 +1 x158 +1 x166 +1 x174 >= 9;
-1 x30 -1 x38 -1 x46 -1 x54 -1 x62 -1 x70 -1 x78 -1 x86 -1 x94 -1 x102 -1 x110 -1 x118 -1 x126 -1 x134 -1 x142 -1 x150 -1 x158 -1 x166 -1 x174 >= -10;
+1 x31 +1 x39 +1 x47 +1 x55 +1 x63 +1 x71 +1 x79 +1 x87 +1 x95 +1 x103 +1 x111 +1 x119 +1 x127 +1 x135 +1 x143 +1 x151 +1 x159 +1 x167 +1 x175 >= 9;
-1 x31 -1 x39 -1 x47 -1 x55 -1 x63 -1 x71 -1 x79 -1 x87 -1 x95 -1 x103 -1 x111 -1 x119 -1 x127 -1 x135 -1 x143 -1 x151 -1 x159 -1 x167 -1 x175 >= -10;
+1 x32 +1 x40 +1 x48 +1 x56 +1 x64 +1 x72 +1 x80 +1 x88 +1 x96 +1 x104 +1 x112 +1 x120 +1 x128 +1 x136 +1 x144 +1 x152 +1 x160 +1 x168 +1 x176 >= 9;
-1 x32 -1 x40 -1 x48 -1 x56 -1 x64 -1 x72 -1 x80 -1 x88 -1 x96 -1 x104 -1 x112 -1 x120 -1 x128 -1 x136 -1 x144 -1 x152 -1 x160 -1 x168 -1 x176 >= -10;
+1 x33 +1 x41 +1 x49 +1 x57 +1 x65 +1 x73 +1 x81 +1 x89 +1 x97 +1 x105 +1 x113 +1 x121 +1 x129 +1 x137 +1 x145 +1 x153 +1 x161 +1 x169 +1 x177 >= 9;
-1 x33 -1 x41 -1 x49 -1 x57 -1 x65 -1 x73 -1 x81 -1 x89 -1 x97 -1 x105 -1 x113 -1 x121 -1 x129 -1 x137 -1 x145 -1 x153 -1 x161 -1 x169 -1 x177 >= -10;
+1 x34 +1 x42 +1 x50 +1 x58 +1 x66 +1 x74 +1 x82 +1 x90 +1 x98 +1 x106 +1 x114 +1 x122 +1 x130 +1 x138 +1 x146 +1 x154 +1 x162 +1 x170 +1 x178 >= 9;
-1 x34 -1 x42 -1 x50 -1 x58 -1 x66 -1 x74 -1 x82 -1 x90 -1 x98 -1 x106 -1 x114 -1 x122 -1 x130 -1 x138 -1 x146 -1 x154 -1 x162 -1 x170 -1 x178 >= -10;
+1 x35 +1 x43 +1 x51 +1 x59 +1 x67 +1 x75 +1 x83 +1 x91 +1 x99 +1 x107 +1 x115 +1 x123 +1 x131 +1 x139 +1 x147 +1 x155 +1 x163 +1 x171 +1 x179 >= 9;
-1 x35 -1 x43 -1 x51 -1 x59 -1 x67 -1 x75 -1 x83 -1 x91 -1 x99 -1 x107 -1 x115 -1 x123 -1 x131 -1 x139 -1 x147 -1 x155 -1 x163 -1 x171 -1 x179 >= -10;
+1 x36 +1 x44 +1 x52 +1 x60 +1 x68 +1 x76 +1 x84 +1 x92 +1 x100 +1 x108 +1 x116 +1 x124 +1 x132 +1 x140 +1 x148 +1 x156 +1 x164 +1 x172 +1 x180 >= 9;
-1 x36 -1 x44 -1 x52 -1 x60 -1 x68 -1 x76 -1 x84 -1 x92 -1 x100 -1 x108 -1 x116 -1 x124 -1 x132 -1 x140 -1 x148 -1 x156 -1 x164 -1 x172 -1 x180 >= -10;
+1 x37 +1 x45 +1 x53 +1 x61 +1 x69 +1 x77 +1 x85 +1 x93 +1 x101 +1 x109 +1 x117 +1 x125 +1 x133 +1 x141 +1 x149 +1 x157 +1 x165 +1 x173 +1 x181 >= 9;
-1 x37 -1 x45 -1 x53 -1 x61 -1 x69 -1 x77 -1 x85 -1 x93 -1 x101 -1 x109 -1 x117 -1 x125 -1 x133 -1 x141 -1 x149 -1 x157 -1 x165 -1 x173 -1 x181 >= -10;
+1 x38 +1 x46 +1 x54 +1 x62 +1 x70 +1 x78 +1 x86 +1 x94 +1 x102 +1 x110 +1 x118 +1 x126 +1 x134 +1 x142 +1 x150 +1 x158 +1 x166 +1 x174 +1 x182 >= 9;
-1 x38 -1 x46 -1 x54 -1 x62 -1 x70 -1 x78 -1 x86 -1 x94 -1 x102 -1 x110 -1 x118 -1 x126 -1 x134 -1 x142 -1 x150 -1 x158 -1 x166 -1 x174 -1 x182 >= -10;
+1 x39 +1 x47 +1 x55 +1 x63 +1 x71 +1 x79 +1 x87 +1 x95 +1 x103 +1 x111 +1 x119 +1 x127 +1 x135 +1 x143 +1 x151 +1 x159 +1 x167 +1 x175 +1 x183 >= 9;
-1 x39 -1 x47 -1 x55 -1 x63 -1 x71 -1 x79 -1 x87 -1 x95 -1 x103 -1 x111 -1 x119 -1 x127 -1 x135 -1 x143 -1 x151 -1 x159 -1 x167 -1 x175 -1 x183 >= -10;
+1 x40 +1 x48 +1 x56 +1 x64 +1 x72 +1 x80 +1 x88 +1 x96 +1 x104 +1 x112 +1 x120 +1 x128 +1 x136 +1 x144 +1 x152 +1 x160 +1 x168 +1 x176 +1 x184 >= 9;
-1 x40 -1 x48 -1 x56 -1 x64 -1 x72 -1 x80 -1 x88 -1 x96 -1 x104 -1 x112 -1 x120 -1 x128 -1 x136 -1 x144 -1 x152 -1 x160 -1 x168 -1 x176 -1 x184 >= -10;
+1 x41 +1 x49 +1 x57 +1 x65 +1 x73 +1 x81 +1 x89 +1 x97 +1 x105 +1 x113 +1 x121 +1 x129 +1 x137 +1 x145 +1 x153 +1 x161 +1 x169 +1 x177 +1 x185 >= 9;
-1 x41 -1 x49 -1 x57 -1 x65 -1 x73 -1 x81 -1 x89 -1 x97 -1 x105 -1 x113 -1 x121 -1 x129 -1 x137 -1 x145 -1 x153 -1 x161 -1 x169 -1 x177 -1 x185 >= -10;
+1 x42 +1 x50 +1 x58 +1 x66 +1 x74 +1 x82 +1 x90 +1 x98 +1 x106 +1 x114 +1 x122 +1 x130 +1 x138 +1 x146 +1 x154 +1 x162 +1 x170 +1 x178 +1 x186 >= 9;
-1 x42 -1 x50 -1 x58 -1 x66 -1 x74 -1 x82 -1 x90 -1 x98 -1 x106 -1 x114 -1 x122 -1 x130 -1 x138 -1 x146 -1 x154 -1 x162 -1 x170 -1 x178 -1 x186 >= -10;
+1 x43 +1 x51 +1 x59 +1 x67 +1 x75 +1 x83 +1 x91 +1 x99 +1 x107 +1 x115 +1 x123 +1 x131 +1 x139 +1 x147 +1 x155 +1 x163 +1 x171 +1 x179 +1 x187 >= 9;
-1 x43 -1 x51 -1 x59 -1 x67 -1 x75 -1 x83 -1 x91 -1 x99 -1 x107 -1 x115 -1 x123 -1 x131 -1 x139 -1 x147 -1 x155 -1 x163 -1 x171 -1 x179 -1 x187 >= -10;
+1 x44 +1 x52 +1 x60 +1 x68 +1 x76 +1 x84 +1 x92 +1 x100 +1 x108 +1 x116 +1 x124 +1 x132 +1 x140 +1 x148 +1 x156 +1 x164 +1 x172 +1 x180 +1 x188 >= 9;
-1 x44 -1 x52 -1 x60 -1 x68 -1 x76 -1 x84 -1 x92 -1 x100 -1 x108 -1 x116 -1 x124 -1 x132 -1 x140 -1 x148 -1 x156 -1 x164 -1 x172 -1 x180 -1 x188 >= -10;
+1 x45 +1 x53 +1 x61 +1 x69 +1 x77 +1 x85 +1 x93 +1 x101 +1 x109 +1 x117 +1 x125 +1 x133 +1 x141 +1 x149 +1 x157 +1 x165 +1 x173 +1 x181 +1 x189 >= 9;
-1 x45 -1 x53 -1 x61 -1 x69 -1 x77 -1 x85 -1 x93 -1 x101 -1 x109 -1 x117 -1 x125 -1 x133 -1 x141 -1 x149 -1 x157 -1 x165 -1 x173 -1 x181 -1 x189 >= -10;
+1 x46 +1 x54 +1 x62 +1 x70 +1 x78 +1 x86 +1 x94 +1 x102 +1 x110 +1 x118 +1 x126 +1 x134 +1 x142 +1 x150 +1 x158 +1 x166 +1 x174 +1 x182 +1 x190 >= 9;
-1 x46 -1 x54 -1 x62 -1 x70 -1 x78 -1 x86 -1 x94 -1 x102 -1 x110 -1 x118 -1 x126 -1 x134 -1 x142 -1 x150 -1 x158 -1 x166 -1 x174 -1 x182 -1 x190 >= -10;
+1 x47 +1 x55 +1 x63 +1 x71 +1 x79 +1 x87 +1 x95 +1 x103 +1 x111 +1 x119 +1 x127 +1 x135 +1 x143 +1 x151 +1 x159 +1 x167 +1 x175 +1 x183 +1 x191 >= 9;
-1 x47 -1 x55 -1 x63 -1 x71 -1 x79 -1 x87 -1 x95 -1 x103 -1 x111 -1 x119 -1 x127 -1 x135 -1 x143 -1 x151 -1 x159 -1 x167 -1 x175 -1 x183 -1 x191 >= -10;
+1 x48 +1 x56 +1 x64 +1 x72 +1 x80 +1 x88 +1 x96 +1 x104 +1 x112 +1 x120 +1 x128 +1 x136 +1 x144 +1 x152 +1 x160 +1 x168 +1 x176 +1 x184 +1 x192 >= 9;
-1 x48 -1 x56 -1 x64 -1 x72 -1 x80 -1 x88 -1 x96 -1 x104 -1 x112 -1 x120 -1 x128 -1 x136 -1 x144 -1 x152 -1 x160 -1 x168 -1 x176 -1 x184 -1 x192 >= -10;
+1 x49 +1 x57 +1 x65 +1 x73 +1 x81 +1 x89 +1 x97 +1 x105 +1 x113 +1 x121 +1 x129 +1 x137 +1 x145 +1 x153 +1 x161 +1 x169 +1 x177 +1 x185 +1 x193 >= 9;
-1 x49 -1 x57 -1 x65 -1 x73 -1 x81 -1 x89 -1 x97 -1 x105 -1 x113 -1 x121 -1 x129 -1 x137 -1 x145 -1 x153 -1 x161 -1 x169 -1 x177 -1 x185 -1 x193 >= -10;
+1 x50 +1 x58 +1 x66 +1 x74 +1 x82 +1 x90 +1 x98 +1 x106 +1 x114 +1 x122 +1 x130 +1 x138 +1 x146 +1 x154 +1 x162 +1 x170 +1 x178 +1 x186 +1 x194 >= 9;
-1 x50 -1 x58 -1 x66 -1 x74 -1 x82 -1 x90 -1 x98 -1 x106 -1 x114 -1 x122 -1 x130 -1 x138 -1 x146 -1 x154 -1 x162 -1 x170 -1 x178 -1 x186 -1 x194 >= -10;
+1 x51 +1 x59 +1 x67 +1 x75 +1 x83 +1 x91 +1 x99 +1 x107 +1 x115 +1 x123 +1 x131 +1 x139 +1 x147 +1 x155 +1 x163 +1 x171 +1 x179 +1 x187 +1 x195 >= 9;
-1 x51 -1 x59 -1 x67 -1 x75 -1 x83 -1 x91 -1 x99 -1 x107 -1 x115 -1 x123 -1 x131 -1 x139 -1 x147 -1 x155 -1 x163 -1 x171 -1 x179 -1 x187 -1 x195 >= -10;
+1 x52 +1 x60 +1 x68 +1 x76 +1 x84 +1 x92 +1 x100 +1 x108 +1 x116 +1 x124 +1 x132 +1 x140 +1 x148 +1 x156 +1 x164 +1 x172 +1 x180 +1 x188 +1 x196 >= 9;
-1 x52 -1 x60 -1 x68 -1 x76 -1 x84 -1 x92 -1 x100 -1 x108 -1 x116 -1 x124 -1 x132 -1 x140 -1 x148 -1 x156 -1 x164 -1 x172 -1 x180 -1 x188 -1 x196 >= -10;
+1 x53 +1 x61 +1 x69 +1 x77 +1 x85 +1 x93 +1 x101 +1 x109 +1 x117 +1 x125 +1 x133 +1 x141 +1 x149 +1 x157 +1 x165 +1 x173 +1 x181 +1 x189 +1 x197 >= 9;
-1 x53 -1 x61 -1 x69 -1 x77 -1 x85 -1 x93 -1 x101 -1 x109 -1 x117 -1 x125 -1 x133 -1 x141 -1 x149 -1 x157 -1 x165 -1 x173 -1 x181 -1 x189 -1 x197 >= -10;
+1 x54 +1 x62 +1 x70 +1 x78 +1 x86 +1 x94 +1 x102 +1 x110 +1 x118 +1 x126 +1 x134 +1 x142 +1 x150 +1 x158 +1 x166 +1 x174 +1 x182 +1 x190 +1 x198 >= 9;
-1 x54 -1 x62 -1 x70 -1 x78 -1 x86 -1 x94 -1 x102 -1 x110 -1 x118 -1 x126 -1 x134 -1 x142 -1 x150 -1 x158 -1 x166 -1 x174 -1 x182 -1 x190 -1 x198 >= -10;
+1 x55 +1 x63 +1 x71 +1 x79 +1 x87 +1 x95 +1 x103 +1 x111 +1 x119 +1 x127 +1 x135 +1 x143 +1 x151 +1 x159 +1 x167 +1 x175 +1 x183 +1 x191 +1 x199 >= 9;
-1 x55 -1 x63 -1 x71 -1 x79 -1 x87 -1 x95 -1 x103 -1 x111 -1 x119 -1 x127 -1 x135 -1 x143 -1 x151 -1 x159 -1 x167 -1 x175 -1 x183 -1 x191 -1 x199 >= -10;
+1 x56 +1 x64 +1 x72 +1 x80 +1 x88 +1 x96 +1 x104 +1 x112 +1 x120 +1 x128 +1 x136 +1 x144 +1 x152 +1 x160 +1 x168 +1 x176 +1 x184 +1 x192 +1 x200 >= 9;
-1 x56 -1 x64 -1 x72 -1 x80 -1 x88 -1 x96 -1 x104 -1 x112 -1 x120 -1 x128 -1 x136 -1 x144 -1 x152 -1 x160 -1 x168 -1 x176 -1 x184 -1 x192 -1 x200 >= -10;
+1 x57 +1 x65 +1 x73 +1 x81 +1 x89 +1 x97 +1 x105 +1 x113 +1 x121 +1 x129 +1 x137 +1 x145 +1 x153 +1 x161 +1 x169 +1 x177 +1 x185 +1 x193 +1 x201 >= 9;
-1 x57 -1 x65 -1 x73 -1 x81 -1 x89 -1 x97 -1 x105 -1 x113 -1 x121 -1 x129 -1 x137 -1 x145 -1 x153 -1 x161 -1 x169 -1 x177 -1 x185 -1 x193 -1 x201 >= -10;
+1 x58 +1 x66 +1 x74 +1 x82 +1 x90 +1 x98 +1 x106 +1 x114 +1 x122 +1 x130 +1 x138 +1 x146 +1 x154 +1 x162 +1 x170 +1 x178 +1 x186 +1 x194 +1 x202 >= 9;
-1 x58 -1 x66 -1 x74 -1 x82 -1 x90 -1 x98 -1 x106 -1 x114 -1 x122 -1 x130 -1 x138 -1 x146 -1 x154 -1 x162 -1 x170 -1 x178 -1 x186 -1 x194 -1 x202 >= -10;
+1 x59 +1 x67 +1 x75 +1 x83 +1 x91 +1 x99 +1 x107 +1 x115 +1 x123 +1 x131 +1 x139 +1 x147 +1 x155 +1 x163 +1 x171 +1 x179 +1 x187 +1 x195 +1 x203 >= 9;
-1 x59 -1 x67 -1 x75 -1 x83 -1 x91 -1 x99 -1 x107 -1 x115 -1 x123 -1 x131 -1 x139 -1 x147 -1 x155 -1 x163 -1 x171 -1 x179 -1 x187 -1 x195 -1 x203 >= -10;
+1 x60 +1 x68 +1 x76 +1 x84 +1 x92 +1 x100 +1 x108 +1 x116 +1 x124 +1 x132 +1 x140 +1 x148 +1 x156 +1 x164 +1 x172 +1 x180 +1 x188 +1 x196 +1 x204 >= 9;
-1 x60 -1 x68 -1 x76 -1 x84 -1 x92 -1 x100 -1 x108 -1 x116 -1 x124 -1 x132 -1 x140 -1 x148 -1 x156 -1 x164 -1 x172 -1 x180 -1 x188 -1 x196 -1 x204 >= -10;
+1 x61 +1 x69 +1 x77 +1 x85 +1 x93 +1 x101 +1 x109 +1 x117 +1 x125 +1 x133 +1 x141 +1 x149 +1 x157 +1 x165 +1 x173 +1 x181 +1 x189 +1 x197 +1 x205 >= 9;
-1 x61 -1 x69 -1 x77 -1 x85 -1 x93 -1 x101 -1 x109 -1 x117 -1 x125 -1 x133 -1 x141 -1 x149 -1 x157 -1 x165 -1 x173 -1 x181 -1 x189 -1 x197 -1 x205 >= -10;
+1 x62 +1 x70 +1 x78 +1 x86 +1 x94 +1 x102 +1 x110 +1 x118 +1 x126 +1 x134 +1 x142 +1 x150 +1 x158 +1 x166 +1 x174 +1 x182 +1 x190 +1 x198 +1 x206 >= 9;
-1 x62 -1 x70 -1 x78 -1 x86 -1 x94 -1 x102 -1 x110 -1 x118 -1 x126 -1 x134 -1 x142 -1 x150 -1 x158 -1 x166 -1 x174 -1 x182 -1 x190 -1 x198 -1 x206 >= -10;
+1 x63 +1 x71 +1 x79 +1 x87 +1 x95 +1 x103 +1 x111 +1 x119 +1 x127 +1 x135 +1 x143 +1 x151 +1 x159 +1 x167 +1 x175 +1 x183 +1 x191 +1 x199 +1 x207 >= 9;
-1 x63 -1 x71 -1 x79 -1 x87 -1 x95 -1 x103 -1 x111 -1 x119 -1 x127 -1 x135 -1 x143 -1 x151 -1 x159 -1 x167 -1 x175 -1 x183 -1 x191 -1 x199 -1 x207 >= -10;
+1 x64 +1 x72 +1 x80 +1 x88 +1 x96 +1 x104 +1 x112 +1 x120 +1 x128 +1 x136 +1 x144 +1 x152 +1 x160 +1 x168 +1 x176 +1 x184 +1 x192 +1 x200 +1 x208 >= 9;
-1 x64 -1 x72 -1 x80 -1 x88 -1 x96 -1 x104 -1 x112 -1 x120 -1 x128 -1 x136 -1 x144 -1 x152 -1 x160 -1 x168 -1 x176 -1 x184 -1 x192 -1 x200 -1 x208 >= -10;
+1 x65 +1 x73 +1 x81 +1 x89 +1 x97 +1 x105 +1 x113 +1 x121 +1 x129 +1 x137 +1 x145 +1 x153 +1 x161 +1 x169 +1 x177 +1 x185 +1 x193 +1 x201 +1 x209 >= 9;
-1 x65 -1 x73 -1 x81 -1 x89 -1 x97 -1 x105 -1 x113 -1 x121 -1 x129 -1 x137 -1 x145 -1 x153 -1 x161 -1 x169 -1 x177 -1 x185 -1 x193 -1 x201 -1 x209 >= -10;
+1 x66 +1 x74 +1 x82 +1 x90 +1 x98 +1 x106 +1 x114 +1 x122 +1 x130 +1 x138 +1 x146 +1 x154 +1 x162 +1 x170 +1 x178 +1 x186 +1 x194 +1 x202 +1 x210 >= 9;
-1 x66 -1 x74 -1 x82 -1 x90 -1 x98 -1 x106 -1 x114 -1 x122 -1 x130 -1 x138 -1 x146 -1 x154 -1 x162 -1 x170 -1 x178 -1 x186 -1 x194 -1 x202 -1 x210 >= -10;
+1 x67 +1 x75 +1 x83 +1 x91 +1 x99 +1 x107 +1 x115 +1 x123 +1 x131 +1 x139 +1 x147 +1 x155 +1 x163 +1 x171 +1 x179 +1 x187 +1 x195 +1 x203 +1 x211 >= 9;
-1 x67 -1 x75 -1 x83 -1 x91 -1 x99 -1 x107 -1 x115 -1 x123 -1 x131 -1 x139 -1 x147 -1 x155 -1 x163 -1 x171 -1 x179 -1 x187 -1 x195 -1 x203 -1 x211 >= -10;
+1 x68 +1 x76 +1 x84 +1 x92 +1 x100 +1 x108 +1 x116 +1 x124 +1 x132 +1 x140 +1 x148 +1 x156 +1 x164 +1 x172 +1 x180 +1 x188 +1 x196 +1 x204 +1 x212 >= 9;
-1 x68 -1 x76 -1 x84 -1 x92 -1 x100 -1 x108 -1 x116 -1 x124 -1 x132 -1 x140 -1 x148 -1 x156 -1 x164 -1 x172 -1 x180 -1 x188 -1 x196 -1 x204 -1 x212 >= -10;
+1 x69 +1 x77 +1 x85 +1 x93 +1 x101 +1 x109 +1 x117 +1 x125 +1 x133 +1 x141 +1 x149 +1 x157 +1 x165 +1 x173 +1 x181 +1 x189 +1 x197 +1 x205 +1 x213 >= 9;
-1 x69 -1 x77 -1 x85 -1 x93 -1 x101 -1 x109 -1 x117 -1 x125 -1 x133 -1 x141 -1 x149 -1 x157 -1 x165 -1 x173 -1 x181 -1 x189 -1 x197 -1 x205 -1 x213 >= -10;
+1 x70 +1 x78 +1 x86 +1 x94 +1 x102 +1 x110 +1 x118 +1 x126 +1 x134 +1 x142 +1 x150 +1 x158 +1 x166 +1 x174 +1 x182 +1 x190 +1 x198 +1 x206 +1 x214 >= 9;
-1 x70 -1 x78 -1 x86 -1 x94 -1 x102 -1 x110 -1 x118 -1 x126 -1 x134 -1 x142 -1 x150 -1 x158 -1 x166 -1 x174 -1 x182 -1 x190 -1 x198 -1 x206 -1 x214 >= -10;
+1 x71 +1 x79 +1 x87 +1 x95 +1 x103 +1 x111 +1 x119 +1 x127 +1 x135 +1 x143 +1 x151 +1 x159 +1 x167 +1 x175 +1 x183 +1 x191 +1 x199 +1 x207 +1 x215 >= 9;
-1 x71 -1 x79 -1 x87 -1 x95 -1 x103 -1 x111 -1 x119 -1 x127 -1 x135 -1 x143 -1 x151 -1 x159 -1 x167 -1 x175 -1 x183 -1 x191 -1 x199 -1 x207 -1 x215 >= -10;
+1 x72 +1 x80 +1 x88 +1 x96 +1 x104 +1 x112 +1 x120 +1 x128 +1 x136 +1 x144 +1 x152 +1 x160 +1 x168 +1 x176 +1 x184 +1 x192 +1 x200 +1 x208 +1 x216 >= 9;
-1 x72 -1 x80 -1 x88 -1 x96 -1 x104 -1 x112 -1 x120 -1 x128 -1 x136 -1 x144 -1 x152 -1 x160 -1 x168 -1 x176 -1 x184 -1 x192 -1 x200 -1 x208 -1 x216 >= -10;
+1 x73 +1 x81 +1 x89 +1 x97 +1 x105 +1 x113 +1 x121 +1 x129 +1 x137 +1 x145 +1 x153 +1 x161 +1 x169 +1 x177 +1 x185 +1 x193 +1 x201 +1 x209 +1 x217 >= 9;
-1 x73 -1 x81 -1 x89 -1 x97 -1 x105 -1 x113 -1 x121 -1 x129 -1 x137 -1 x145 -1 x153 -1 x161 -1 x169 -1 x177 -1 x185 -1 x193 -1 x201 -1 x209 -1 x217 >= -10;
+1 x74 +1 x82 +1 x90 +1 x98 +1 x106 +1 x114 +1 x122 +1 x130 +1 x138 +1 x146 +1 x154 +1 x162 +1 x170 +1 x178 +1 x186 +1 x194 +1 x202 +1 x210 +1 x218 >= 9;
-1 x74 -1 x82 -1 x90 -1 x98 -1 x106 -1 x114 -1 x122 -1 x130 -1 x138 -1 x146 -1 x154 -1 x162 -1 x170 -1 x178 -1 x186 -1 x194 -1 x202 -1 x210 -1 x218 >= -10;
+1 x75 +1 x83 +1 x91 +1 x99 +1 x107 +1 x115 +1 x123 +1 x131 +1 x139 +1 x147 +1 x155 +1 x163 +1 x171 +1 x179 +1 x187 +1 x195 +1 x203 +1 x211 +1 x219 >= 9;
-1 x75 -1 x83 -1 x91 -1 x99 -1 x107 -1 x115 -1 x123 -1 x131 -1 x139 -1 x147 -1 x155 -1 x163 -1 x171 -1 x179 -1 x187 -1 x195 -1 x203 -1 x211 -1 x219 >= -10;
+1 x76 +1 x84 +1 x92 +1 x100 +1 x108 +1 x116 +1 x124 +1 x132 +1 x140 +1 x148 +1 x156 +1 x164 +1 x172 +1 x180 +1 x188 +1 x196 +1 x204 +1 x212 +1 x220 >= 9;
-1 x76 -1 x84 -1 x92 -1 x100 -1 x108 -1 x116 -1 x124 -1 x132 -1 x140 -1 x148 -1 x156 -1 x164 -1 x172 -1 x180 -1 x188 -1 x196 -1 x204 -1 x212 -1 x220 >= -10;
+1 x77 +1 x85 +1 x93 +1 x101 +1 x109 +1 x117 +1 x125 +1 x133 +1 x141 +1 x149 +1 x157 +1 x165 +1 x173 +1 x181 +1 x189 +1 x197 +1 x205 +1 x213 +1 x221 >= 9;
-1 x77 -1 x85 -1 x93 -1 x101 -1 x109 -1 x117 -1 x125 -1 x133 -1 x141 -1 x149 -1 x157 -1 x165 -1 x173 -1 x181 -1 x189 -1 x197 -1 x205 -1 x213 -1 x221 >= -10;
+1 x78 +1 x86 +1 x94 +1 x102 +1 x110 +1 x118 +1 x126 +1 x134 +1 x142 +1 x150 +1 x158 +1 x166 +1 x174 +1 x182 +1 x190 +1 x198 +1 x206 +1 x214 +1 x222 >= 9;
-1 x78 -1 x86 -1 x94 -1 x102 -1 x110 -1 x118 -1 x126 -1 x134 -1 x142 -1 x150 -1 x158 -1 x166 -1 x174 -1 x182 -1 x190 -1 x198 -1 x206 -1 x214 -1 x222 >= -10;
+1 x79 +1 x87 +1 x95 +1 x103 +1 x111 +1 x119 +1 x127 +1 x135 +1 x143 +1 x151 +1 x159 +1 x167 +1 x175 +1 x183 +1 x191 +1 x199 +1 x207 +1 x215 +1 x223 >= 9;
-1 x79 -1 x87 -1 x95 -1 x103 -1 x111 -1 x119 -1 x127 -1 x135 -1 x143 -1 x151 -1 x159 -1 x167 -1 x175 -1 x183 -1 x191 -1 x199 -1 x207 -1 x215 -1 x223 >= -10;
+1 x80 +1 x88 +1 x96 +1 x104 +1 x112 +1 x120 +1 x128 +1 x136 +1 x144 +1 x152 +1 x160 +1 x168 +1 x176 +1 x184 +1 x192 +1 x200 +1 x208 +1 x216 +1 x224 >= 9;
-1 x80 -1 x88 -1 x96 -1 x104 -1 x112 -1 x120 -1 x128 -1 x136 -1 x144 -1 x152 -1 x160 -1 x168 -1 x176 -1 x184 -1 x192 -1 x200 -1 x208 -1 x216 -1 x224 >= -10;
+1 x81 +1 x89 +1 x97 +1 x105 +1 x113 +1 x121 +1 x129 +1 x137 +1 x145 +1 x153 +1 x161 +1 x169 +1 x177 +1 x185 +1 x193 +1 x201 +1 x209 +1 x217 +1 x225 >= 9;
-1 x81 -1 x89 -1 x97 -1 x105 -1 x113 -1 x121 -1 x129 -1 x137 -1 x145 -1 x153 -1 x161 -1 x169 -1 x177 -1 x185 -1 x193 -1 x201 -1 x209 -1 x217 -1 x225 >= -10;
+1 x82 +1 x90 +1 x98 +1 x106 +1 x114 +1 x122 +1 x130 +1 x138 +1 x146 +1 x154 +1 x162 +1 x170 +1 x178 +1 x186 +1 x194 +1 x202 +1 x210 +1 x218 +1 x226 >= 9;
-1 x82 -1 x90 -1 x98 -1 x106 -1 x114 -1 x122 -1 x130 -1 x138 -1 x146 -1 x154 -1 x162 -1 x170 -1 x178 -1 x186 -1 x194 -1 x202 -1 x210 -1 x218 -1 x226 >= -10;
+1 x83 +1 x91 +1 x99 +1 x107 +1 x115 +1 x123 +1 x131 +1 x139 +1 x147 +1 x155 +1 x163 +1 x171 +1 x179 +1 x187 +1 x195 +1 x203 +1 x211 +1 x219 +1 x227 >= 9;
-1 x83 -1 x91 -1 x99 -1 x107 -1 x115 -1 x123 -1 x131 -1 x139 -1 x147 -1 x155 -1 x163 -1 x171 -1 x179 -1 x187 -1 x195 -1 x203 -1 x211 -1 x219 -1 x227 >= -10;
+1 x84 +1 x92 +1 x100 +1 x108 +1 x116 +1 x124 +1 x132 +1 x140 +1 x148 +1 x156 +1 x164 +1 x172 +1 x180 +1 x188 +1 x196 +1 x204 +1 x212 +1 x220 +1 x228 >= 9;
-1 x84 -1 x92 -1 x100 -1 x108 -1 x116 -1 x124 -1 x132 -1 x140 -1 x148 -1 x156 -1 x164 -1 x172 -1 x180 -1 x188 -1 x196 -1 x204 -1 x212 -1 x220 -1 x228 >= -10;
+1 x85 +1 x93 +1 x101 +1 x109 +1 x117 +1 x125 +1 x133 +1 x141 +1 x149 +1 x157 +1 x165 +1 x173 +1 x181 +1 x189 +1 x197 +1 x205 +1 x213 +1 x221 +1 x229 >= 9;
-1 x85 -1 x93 -1 x101 -1 x109 -1 x117 -1 x125 -1 x133 -1 x141 -1 x149 -1 x157 -1 x165 -1 x173 -1 x181 -1 x189 -1 x197 -1 x205 -1 x213 -1 x221 -1 x229 >= -10;
+1 x86 +1 x94 +1 x102 +1 x110 +1 x118 +1 x126 +1 x134 +1 x142 +1 x150 +1 x158 +1 x166 +1 x174 +1 x182 +1 x190 +1 x198 +1 x206 +1 x214 +1 x222 +1 x230 >= 9;
-1 x86 -1 x94 -1 x102 -1 x110 -1 x118 -1 x126 -1 x134 -1 x142 -1 x150 -1 x158 -1 x166 -1 x174 -1 x182 -1 x190 -1 x198 -1 x206 -1 x214 -1 x222 -1 x230 >= -10;
+1 x87 +1 x95 +1 x103 +1 x111 +1 x119 +1 x127 +1 x135 +1 x143 +1 x151 +1 x159 +1 x167 +1 x175 +1 x183 +1 x191 +1 x199 +1 x207 +1 x215 +1 x223 +1 x231 >= 9;
-1 x87 -1 x95 -1 x103 -1 x111 -1 x119 -1 x127 -1 x135 -1 x143 -1 x151 -1 x159 -1 x167 -1 x175 -1 x183 -1 x191 -1 x199 -1 x207 -1 x215 -1 x223 -1 x231 >= -10;
+1 x88 +1 x96 +1 x104 +1 x112 +1 x120 +1 x128 +1 x136 +1 x144 +1 x152 +1 x160 +1 x168 +1 x176 +1 x184 +1 x192 +1 x200 +1 x208 +1 x216 +1 x224 +1 x232 >= 9;
-1 x88 -1 x96 -1 x104 -1 x112 -1 x120 -1 x128 -1 x136 -1 x144 -1 x152 -1 x160 -1 x168 -1 x176 -1 x184 -1 x192 -1 x200 -1 x208 -1 x216 -1 x224 -1 x232 >= -10;
+1 x89 +1 x97 +1 x105 +1 x113 +1 x121 +1 x129 +1 x137 +1 x145 +1 x153 +1 x161 +1 x169 +1 x177 +1 x185 +1 x193 +1 x201 +1 x209 +1 x217 +1 x225 +1 x233 >= 9;
-1 x89 -1 x97 -1 x105 -1 x113 -1 x121 -1 x129 -1 x137 -1 x145 -1 x153 -1 x161 -1 x169 -1 x177 -1 x185 -1 x193 -1 x201 -1 x209 -1 x217 -1 x225 -1 x233 >= -10;
+1 x90 +1 x98 +1 x106 +1 x114 +1 x122 +1 x130 +1 x138 +1 x146 +1 x154 +1 x162 +1 x170 +1 x178 +1 x186 +1 x194 +1 x202 +1 x210 +1 x218 +1 x226 +1 x234 >= 9;
-1 x90 -1 x98 -1 x106 -1 x114 -1 x122 -1 x130 -1 x138 -1 x146 -1 x154 -1 x162 -1 x170 -1 x178 -1 x186 -1 x194 -1 x202 -1 x210 -1 x218 -1 x226 -1 x234 >= -10;
+1 x91 +1 x99 +1 x107 +1 x115 +1 x123 +1 x131 +1 x139 +1 x147 +1 x155 +1 x163 +1 x171 +1 x179 +1 x187 +1 x195 +1 x203 +1 x211 +1 x219 +1 x227 +1 x235 >= 9;
-1 x91 -1 x99 -1 x107 -1 x115 -1 x123 -1 x131 -1 x139 -1 x147 -1 x155 -1 x163 -1 x171 -1 x179 -1 x187 -1 x195 -1 x203 -1 x211 -1 x219 -1 x227 -1 x235 >= -10;
+1 x92 +1 x100 +1 x108 +1 x116 +1 x124 +1 x132 +1 x140 +1 x148 +1 x156 +1 x164 +1 x172 +1 x180 +1 x188 +1 x196 +1 x204 +1 x212 +1 x220 +1 x228 +1 x236 >= 9;
-1 x92 -1 x100 -1 x108 -1 x116 -1 x124 -1 x132 -1 x140 -1 x148 -1 x156 -1 x164 -1 x172 -1 x180 -1 x188 -1 x196 -1 x204 -1 x212 -1 x220 -1 x228 -1 x236 >= -10;
+1 x93 +1 x101 +1 x109 +1 x117 +1 x125 +1 x133 +1 x141 +1 x149 +1 x157 +1 x165 +1 x173 +1 x181 +1 x189 +1 x197 +1 x205 +1 x213 +1 x221 +1 x229 +1 x237 >= 9;
-1 x93 -1 x101 -1 x109 -1 x117 -1 x125 -1 x133 -1 x141 -1 x149 -1 x157 -1 x165 -1 x173 -1 x181 -1 x189 -1 x197 -1 x205 -1 x213 -1 x221 -1 x229 -1 x237 >= -10;
+1 x94 +1 x102 +1 x110 +1 x118 +1 x126 +1 x134 +1 x142 +1 x150 +1 x158 +1 x166 +1 x174 +1 x182 +1 x190 +1 x198 +1 x206 +1 x214 +1 x222 +1 x230 +1 x238 >= 9;
-1 x94 -1 x102 -1 x110 -1 x118 -1 x126 -1 x134 -1 x142 -1 x150 -1 x158 -1 x166 -1 x174 -1 x182 -1 x190 -1 x198 -1 x206 -1 x214 -1 x222 -1 x230 -1 x238 >= -10;
+1 x95 +1 x103 +1 x111 +1 x119 +1 x127 +1 x135 +1 x143 +1 x151 +1 x159 +1 x167 +1 x175 +1 x183 +1 x191 +1 x199 +1 x207 +1 x215 +1 x223 +1 x231 +1 x239 >= 9;
-1 x95 -1 x103 -1 x111 -1 x119 -1 x127 -1 x135 -1 x143 -1 x151 -1 x159 -1 x167 -1 x175 -1 x183 -1 x191 -1 x199 -1 x207 -1 x215 -1 x223 -1 x231 -1 x239 >= -10;
+1 x96 +1 x104 +1 x112 +1 x120 +1 x128 +1 x136 +1 x144 +1 x152 +1 x160 +1 x168 +1 x176 +1 x184 +1 x192 +1 x200 +1 x208 +1 x216 +1 x224 +1 x232 +1 x240 >= 9;
-1 x96 -1 x104 -1 x112 -1 x120 -1 x128 -1 x136 -1 x144 -1 x152 -1 x160 -1 x168 -1 x176 -1 x184 -1 x192 -1 x200 -1 x208 -1 x216 -1 x224 -1 x232 -1 x240 >= -10;
+1 x97 +1 x105 +1 x113 +1 x121 +1 x129 +1 x137 +1 x145 +1 x153 +1 x161 +1 x169 +1 x177 +1 x185 +1 x193 +1 x201 +1 x209 +1 x217 +1 x225 +1 x233 +1 x241 >= 9;
-1 x97 -1 x105 -1 x113 -1 x121 -1 x129 -1 x137 -1 x145 -1 x153 -1 x161 -1 x169 -1 x177 -1 x185 -1 x193 -1 x201 -1 x209 -1 x217 -1 x225 -1 x233 -1 x241 >= -10;
+1 x98 +1 x106 +1 x114 +1 x122 +1 x130 +1 x138 +1 x146 +1 x154 +1 x162 +1 x170 +1 x178 +1 x186 +1 x194 +1 x202 +1 x210 +1 x218 +1 x226 +1 x234 +1 x242 >= 9;
-1 x98 -1 x106 -1 x114 -1 x122 -1 x130 -1 x138 -1 x146 -1 x154 -1 x162 -1 x170 -1 x178 -1 x186 -1 x194 -1 x202 -1 x210 -1 x218 -1 x226 -1 x234 -1 x242 >= -10;
+1 x99 +1 x107 +1 x115 +1 x123 +1 x131 +1 x139 +1 x147 +1 x155 +1 x163 +1 x171 +1 x179 +1 x187 +1 x195 +1 x203 +1 x211 +1 x219 +1 x227 +1 x235 +1 x243 >= 9;
-1 x99 -1 x107 -1 x115 -1 x123 -1 x131 -1 x139 -1 x147 -1 x155 -1 x163 -1 x171 -1 x179 -1 x187 -1 x195 -1 x203 -1 x211 -1 x219 -1 x227 -1 x235 -1 x243 >= -10;
+1 x100 +1 x108 +1 x116 +1 x124 +1 x132 +1 x140 +1 x148 +1 x156 +1 x164 +1 x172 +1 x180 +1 x188 +1 x196 +1 x204 +1 x212 +1 x220 +1 x228 +1 x236 +1 x244 >= 9;
-1 x100 -1 x108 -1 x116 -1 x124 -1 x132 -1 x140 -1 x148 -1 x156 -1 x164 -1 x172 -1 x180 -1 x188 -1 x196 -1 x204 -1 x212 -1 x220 -1 x228 -1 x236 -1 x244 >= -10;
+1 x101 +1 x109 +1 x117 +1 x125 +1 x133 +1 x141 +1 x149 +1 x157 +1 x165 +1 x173 +1 x181 +1 x189 +1 x197 +1 x205 +1 x213 +1 x221 +1 x229 +1 x237 +1 x245 >= 9;
-1 x101 -1 x109 -1 x117 -1 x125 -1 x133 -1 x141 -1 x149 -1 x157 -1 x165 -1 x173 -1 x181 -1 x189 -1 x197 -1 x205 -1 x213 -1 x221 -1 x229 -1 x237 -1 x245 >= -10;
+1 x102 +1 x110 +1 x118 +1 x126 +1 x134 +1 x142 +1 x150 +1 x158 +1 x166 +1 x174 +1 x182 +1 x190 +1 x198 +1 x206 +1 x214 +1 x222 +1 x230 +1 x238 +1 x246 >= 9;
-1 x102 -1 x110 -1 x118 -1 x126 -1 x134 -1 x142 -1 x150 -1 x158 -1 x166 -1 x174 -1 x182 -1 x190 -1 x198 -1 x206 -1 x214 -1 x222 -1 x230 -1 x238 -1 x246 >= -10;
+1 x103 +1 x111 +1 x119 +1 x127 +1 x135 +1 x143 +1 x151 +1 x159 +1 x167 +1 x175 +1 x183 +1 x191 +1 x199 +1 x207 +1 x215 +1 x223 +1 x231 +1 x239 +1 x247 >= 9;
-1 x103 -1 x111 -1 x119 -1 x127 -1 x135 -1 x143 -1 x151 -1 x159 -1 x167 -1 x175 -1 x183 -1 x191 -1 x199 -1 x207 -1 x215 -1 x223 -1 x231 -1 x239 -1 x247 >= -10;
+1 x104 +1 x112 +1 x120 +1 x128 +1 x136 +1 x144 +1 x152 +1 x160 +1 x168 +1 x176 +1 x184 +1 x192 +1 x200 +1 x208 +1 x216 +1 x224 +1 x232 +1 x240 +1 x248 >= 9;
-1 x104 -1 x112 -1 x120 -1 x128 -1 x136 -1 x144 -1 x152 -1 x160 -1 x168 -1 x176 -1 x184 -1 x192 -1 x200 -1 x208 -1 x216 -1 x224 -1 x232 -1 x240 -1 x248 >= -10;
+1 x105 +1 x113 +1 x121 +1 x129 +1 x137 +1 x145 +1 x153 +1 x161 +1 x169 +1 x177 +1 x185 +1 x193 +1 x201 +1 x209 +1 x217 +1 x225 +1 x233 +1 x241 +1 x249 >= 9;
-1 x105 -1 x113 -1 x121 -1 x129 -1 x137 -1 x145 -1 x153 -1 x161 -1 x169 -1 x177 -1 x185 -1 x193 -1 x201 -1 x209 -1 x217 -1 x225 -1 x233 -1 x241 -1 x249 >= -10;
+1 x106 +1 x114 +1 x122 +1 x130 +1 x138 +1 x146 +1 x154 +1 x162 +1 x170 +1 x178 +1 x186 +1 x194 +1 x202 +1 x210 +1 x218 +1 x226 +1 x234 +1 x242 +1 x250 >= 9;
-1 x106 -1 x114 -1 x122 -1 x130 -1 x138 -1 x146 -1 x154 -1 x162 -1 x170 -1 x178 -1 x186 -1 x194 -1 x202 -1 x210 -1 x218 -1 x226 -1 x234 -1 x242 -1 x250 >= -10;
+1 x107 +1 x115 +1 x123 +1 x131 +1 x139 +1 x147 +1 x155 +1 x163 +1 x171 +1 x179 +1 x187 +1 x195 +1 x203 +1 x211 +1 x219 +1 x227 +1 x235 +1 x243 +1 x251 >= 9;
-1 x107 -1 x115 -1 x123 -1 x131 -1 x139 -1 x147 -1 x155 -1 x163 -1 x171 -1 x179 -1 x187 -1 x195 -1 x203 -1 x211 -1 x219 -1 x227 -1 x235 -1 x243 -1 x251 >= -10;
+1 x108 +1 x116 +1 x124 +1 x132 +1 x140 +1 x148 +1 x156 +1 x164 +1 x172 +1 x180 +1 x188 +1 x196 +1 x204 +1 x212 +1 x220 +1 x228 +1 x236 +1 x244 +1 x252 >= 9;
-1 x108 -1 x116 -1 x124 -1 x132 -1 x140 -1 x148 -1 x156 -1 x164 -1 x172 -1 x180 -1 x188 -1 x196 -1 x204 -1 x212 -1 x220 -1 x228 -1 x236 -1 x244 -1 x252 >= -10;
+1 x109 +1 x117 +1 x125 +1 x133 +1 x141 +1 x149 +1 x157 +1 x165 +1 x173 +1 x181 +1 x189 +1 x197 +1 x205 +1 x213 +1 x221 +1 x229 +1 x237 +1 x245 +1 x253 >= 9;
-1 x109 -1 x117 -1 x125 -1 x133 -1 x141 -1 x149 -1 x157 -1 x165 -1 x173 -1 x181 -1 x189 -1 x197 -1 x205 -1 x213 -1 x221 -1 x229 -1 x237 -1 x245 -1 x253 >= -10;
+1 x110 +1 x118 +1 x126 +1 x134 +1 x142 +1 x150 +1 x158 +1 x166 +1 x174 +1 x182 +1 x190 +1 x198 +1 x206 +1 x214 +1 x222 +1 x230 +1 x238 +1 x246 +1 x254 >= 9;
-1 x110 -1 x118 -1 x126 -1 x134 -1 x142 -1 x150 -1 x158 -1 x166 -1 x174 -1 x182 -1 x190 -1 x198 -1 x206 -1 x214 -1 x222 -1 x230 -1 x238 -1 x246 -1 x254 >= -10;
+1 x111 +1 x119 +1 x127 +1 x135 +1 x143 +1 x151 +1 x159 +1 x167 +1 x175 +1 x183 +1 x191 +1 x199 +1 x207 +1 x215 +1 x223 +1 x231 +1 x239 +1 x247 +1 x255 >= 9;
-1 x111 -1 x119 -1 x127 -1 x135 -1 x143 -1 x151 -1 x159 -1 x167 -1 x175 -1 x183 -1 x191 -1 x199 -1 x207 -1 x215 -1 x223 -1 x231 -1 x239 -1 x247 -1 x255 >= -10;
+1 x112 +1 x120 +1 x128 +1 x136 +1 x144 +1 x152 +1 x160 +1 x168 +1 x176 +1 x184 +1 x192 +1 x200 +1 x208 +1 x216 +1 x224 +1 x232 +1 x240 +1 x248 +1 x256 >= 9;
-1 x112 -1 x120 -1 x128 -1 x136 -1 x144 -1 x152 -1 x160 -1 x168 -1 x176 -1 x184 -1 x192 -1 x200 -1 x208 -1 x216 -1 x224 -1 x232 -1 x240 -1 x248 -1 x256 >= -10;
+1 x113 +1 x121 +1 x129 +1 x137 +1 x145 +1 x153 +1 x161 +1 x169 +1 x177 +1 x185 +1 x193 +1 x201 +1 x209 +1 x217 +1 x225 +1 x233 +1 x241 +1 x249 +1 x257 >= 9;
-1 x113 -1 x121 -1 x129 -1 x137 -1 x145 -1 x153 -1 x161 -1 x169 -1 x177 -1 x185 -1 x193 -1 x201 -1 x209 -1 x217 -1 x225 -1 x233 -1 x241 -1 x249 -1 x257 >= -10;
+1 x114 +1 x122 +1 x130 +1 x138 +1 x146 +1 x154 +1 x162 +1 x170 +1 x178 +1 x186 +1 x194 +1 x202 +1 x210 +1 x218 +1 x226 +1 x234 +1 x242 +1 x250 +1 x258 >= 9;
-1 x114 -1 x122 -1 x130 -1 x138 -1 x146 -1 x154 -1 x162 -1 x170 -1 x178 -1 x186 -1 x194 -1 x202 -1 x210 -1 x218 -1 x226 -1 x234 -1 x242 -1 x250 -1 x258 >= -10;
+1 x115 +1 x123 +1 x131 +1 x139 +1 x147 +1 x155 +1 x163 +1 x171 +1 x179 +1 x187 +1 x195 +1 x203 +1 x211 +1 x219 +1 x227 +1 x235 +1 x243 +1 x251 +1 x259 >= 9;
-1 x115 -1 x123 -1 x131 -1 x139 -1 x147 -1 x155 -1 x163 -1 x171 -1 x179 -1 x187 -1 x195 -1 x203 -1 x211 -1 x219 -1 x227 -1 x235 -1 x243 -1 x251 -1 x259 >= -10;
+1 x116 +1 x124 +1 x132 +1 x140 +1 x148 +1 x156 +1 x164 +1 x172 +1 x180 +1 x188 +1 x196 +1 x204 +1 x212 +1 x220 +1 x228 +1 x236 +1 x244 +1 x252 +1 x260 >= 9;
-1 x116 -1 x124 -1 x132 -1 x140 -1 x148 -1 x156 -1 x164 -1 x172 -1 x180 -1 x188 -1 x196 -1 x204 -1 x212 -1 x220 -1 x228 -1 x236 -1 x244 -1 x252 -1 x260 >= -10;
+1 x117 +1 x125 +1 x133 +1 x141 +1 x149 +1 x157 +1 x165 +1 x173 +1 x181 +1 x189 +1 x197 +1 x205 +1 x213 +1 x221 +1 x229 +1 x237 +1 x245 +1 x253 +1 x261 >= 9;
-1 x117 -1 x125 -1 x133 -1 x141 -1 x149 -1 x157 -1 x165 -1 x173 -1 x181 -1 x189 -1 x197 -1 x205 -1 x213 -1 x221 -1 x229 -1 x237 -1 x245 -1 x253 -1 x261 >= -10;
+1 x118 +1 x126 +1 x134 +1 x142 +1 x150 +1 x158 +1 x166 +1 x174 +1 x182 +1 x190 +1 x198 +1 x206 +1 x214 +1 x222 +1 x230 +1 x238 +1 x246 +1 x254 +1 x262 >= 9;
-1 x118 -1 x126 -1 x134 -1 x142 -1 x150 -1 x158 -1 x166 -1 x174 -1 x182 -1 x190 -1 x198 -1 x206 -1 x214 -1 x222 -1 x230 -1 x238 -1 x246 -1 x254 -1 x262 >= -10;
+1 x119 +1 x127 +1 x135 +1 x143 +1 x151 +1 x159 +1 x167 +1 x175 +1 x183 +1 x191 +1 x199 +1 x207 +1 x215 +1 x223 +1 x231 +1 x239 +1 x247 +1 x255 +1 x263 >= 9;
-1 x119 -1 x127 -1 x135 -1 x143 -1 x151 -1 x159 -1 x167 -1 x175 -1 x183 -1 x191 -1 x199 -1 x207 -1 x215 -1 x223 -1 x231 -1 x239 -1 x247 -1 x255 -1 x263 >= -10;
+1 x120 +1 x128 +1 x136 +1 x144 +1 x152 +1 x160 +1 x168 +1 x176 +1 x184 +1 x192 +1 x200 +1 x208 +1 x216 +1 x224 +1 x232 +1 x240 +1 x248 +1 x256 +1 x264 >= 9;
-1 x120 -1 x128 -1 x136 -1 x144 -1 x152 -1 x160 -1 x168 -1 x176 -1 x184 -1 x192 -1 x200 -1 x208 -1 x216 -1 x224 -1 x232 -1 x240 -1 x248 -1 x256 -1 x264 >= -10;
+1 x121 +1 x129 +1 x137 +1 x145 +1 x153 +1 x161 +1 x169 +1 x177 +1 x185 +1 x193 +1 x201 +1 x209 +1 x217 +1 x225 +1 x233 +1 x241 +1 x249 +1 x257 +1 x265 >= 9;
-1 x121 -1 x129 -1 x137 -1 x145 -1 x153 -1 x161 -1 x169 -1 x177 -1 x185 -1 x193 -1 x201 -1 x209 -1 x217 -1 x225 -1 x233 -1 x241 -1 x249 -1 x257 -1 x265 >= -10;
+1 x122 +1 x130 +1 x138 +1 x146 +1 x154 +1 x162 +1 x170 +1 x178 +1 x186 +1 x194 +1 x202 +1 x210 +1 x218 +1 x226 +1 x234 +1 x242 +1 x250 +1 x258 +1 x266 >= 9;
-1 x122 -1 x130 -1 x138 -1 x146 -1 x154 -1 x162 -1 x170 -1 x178 -1 x186 -1 x194 -1 x202 -1 x210 -1 x218 -1 x226 -1 x234 -1 x242 -1 x250 -1 x258 -1 x266 >= -10;
+1 x123 +1 x131 +1 x139 +1 x147 +1 x155 +1 x163 +1 x171 +1 x179 +1 x187 +1 x195 +1 x203 +1 x211 +1 x219 +1 x227 +1 x235 +1 x243 +1 x251 +1 x259 +1 x267 >= 9;
-1 x123 -1 x131 -1 x139 -1 x147 -1 x155 -1 x163 -1 x171 -1 x179 -1 x187 -1 x195 -1 x203 -1 x211 -1 x219 -1 x227 -1 x235 -1 x243 -1 x251 -1 x259 -1 x267 >= -10;
+1 x124 +1 x132 +1 x140 +1 x148 +1 x156 +1 x164 +1 x172 +1 x180 +1 x188 +1 x196 +1 x204 +1 x212 +1 x220 +1 x228 +1 x236 +1 x244 +1 x252 +1 x260 +1 x268 >= 9;
-1 x124 -1 x132 -1 x140 -1 x148 -1 x156 -1 x164 -1 x172 -1 x180 -1 x188 -1 x196 -1 x204 -1 x212 -1 x220 -1 x228 -1 x236 -1 x244 -1 x252 -1 x260 -1 x268 >= -10;
+1 x125 +1 x133 +1 x141 +1 x149 +1 x157 +1 x165 +1 x173 +1 x181 +1 x189 +1 x197 +1 x205 +1 x213 +1 x221 +1 x229 +1 x237 +1 x245 +1 x253 +1 x261 +1 x269 >= 9;
-1 x125 -1 x133 -1 x141 -1 x149 -1 x157 -1 x165 -1 x173 -1 x181 -1 x189 -1 x197 -1 x205 -1 x213 -1 x221 -1 x229 -1 x237 -1 x245 -1 x253 -1 x261 -1 x269 >= -10;
+1 x126 +1 x134 +1 x142 +1 x150 +1 x158 +1 x166 +1 x174 +1 x182 +1 x190 +1 x198 +1 x206 +1 x214 +1 x222 +1 x230 +1 x238 +1 x246 +1 x254 +1 x262 +1 x270 >= 9;
-1 x126 -1 x134 -1 x142 -1 x150 -1 x158 -1 x166 -1 x174 -1 x182 -1 x190 -1 x198 -1 x206 -1 x214 -1 x222 -1 x230 -1 x238 -1 x246 -1 x254 -1 x262 -1 x270 >= -10;
+1 x127 +1 x135 +1 x143 +1 x151 +1 x159 +1 x167 +1 x175 +1 x183 +1 x191 +1 x199 +1 x207 +1 x215 +1 x223 +1 x231 +1 x239 +1 x247 +1 x255 +1 x263 +1 x271 >= 9;
-1 x127 -1 x135 -1 x143 -1 x151 -1 x159 -1 x167 -1 x175 -1 x183 -1 x191 -1 x199 -1 x207 -1 x215 -1 x223 -1 x231 -1 x239 -1 x247 -1 x255 -1 x263 -1 x271 >= -10;
+1 x128 +1 x136 +1 x144 +1 x152 +1 x160 +1 x168 +1 x176 +1 x184 +1 x192 +1 x200 +1 x208 +1 x216 +1 x224 +1 x232 +1 x240 +1 x248 +1 x256 +1 x264 +1 x272 >= 9;
-1 x128 -1 x136 -1 x144 -1 x152 -1 x160 -1 x168 -1 x176 -1 x184 -1 x192 -1 x200 -1 x208 -1 x216 -1 x224 -1 x232 -1 x240 -1 x248 -1 x256 -1 x264 -1 x272 >= -10;
+1 x129 +1 x137 +1 x145 +1 x153 +1 x161 +1 x169 +1 x177 +1 x185 +1 x193 +1 x201 +1 x209 +1 x217 +1 x225 +1 x233 +1 x241 +1 x249 +1 x257 +1 x265 +1 x273 >= 9;
-1 x129 -1 x137 -1 x145 -1 x153 -1 x161 -1 x169 -1 x177 -1 x185 -1 x193 -1 x201 -1 x209 -1 x217 -1 x225 -1 x233 -1 x241 -1 x249 -1 x257 -1 x265 -1 x273 >= -10;
+1 x130 +1 x138 +1 x146 +1 x154 +1 x162 +1 x170 +1 x178 +1 x186 +1 x194 +1 x202 +1 x210 +1 x218 +1 x226 +1 x234 +1 x242 +1 x250 +1 x258 +1 x266 +1 x274 >= 9;
-1 x130 -1 x138 -1 x146 -1 x154 -1 x162 -1 x170 -1 x178 -1 x186 -1 x194 -1 x202 -1 x210 -1 x218 -1 x226 -1 x234 -1 x242 -1 x250 -1 x258 -1 x266 -1 x274 >= -10;
+1 x131 +1 x139 +1 x147 +1 x155 +1 x163 +1 x171 +1 x179 +1 x187 +1 x195 +1 x203 +1 x211 +1 x219 +1 x227 +1 x235 +1 x243 +1 x251 +1 x259 +1 x267 +1 x275 >= 9;
-1 x131 -1 x139 -1 x147 -1 x155 -1 x163 -1 x171 -1 x179 -1 x187 -1 x195 -1 x203 -1 x211 -1 x219 -1 x227 -1 x235 -1 x243 -1 x251 -1 x259 -1 x267 -1 x275 >= -10;
+1 x132 +1 x140 +1 x148 +1 x156 +1 x164 +1 x172 +1 x180 +1 x188 +1 x196 +1 x204 +1 x212 +1 x220 +1 x228 +1 x236 +1 x244 +1 x252 +1 x260 +1 x268 +1 x276 >= 9;
-1 x132 -1 x140 -1 x148 -1 x156 -1 x164 -1 x172 -1 x180 -1 x188 -1 x196 -1 x204 -1 x212 -1 x220 -1 x228 -1 x236 -1 x244 -1 x252 -1 x260 -1 x268 -1 x276 >= -10;
+1 x133 +1 x141 +1 x149 +1 x157 +1 x165 +1 x173 +1 x181 +1 x189 +1 x197 +1 x205 +1 x213 +1 x221 +1 x229 +1 x237 +1 x245 +1 x253 +1 x261 +1 x269 +1 x277 >= 9;
-1 x133 -1 x141 -1 x149 -1 x157 -1 x165 -1 x173 -1 x181 -1 x189 -1 x197 -1 x205 -1 x213 -1 x221 -1 x229 -1 x237 -1 x245 -1 x253 -1 x261 -1 x269 -1 x277 >= -10;
+1 x134 +1 x142 +1 x150 +1 x158 +1 x166 +1 x174 +1 x182 +1 x190 +1 x198 +1 x206 +1 x214 +1 x222 +1 x230 +1 x238 +1 x246 +1 x254 +1 x262 +1 x270 +1 x278 >= 9;
-1 x134 -1 x142 -1 x150 -1 x158 -1 x166 -1 x174 -1 x182 -1 x190 -1 x198 -1 x206 -1 x214 -1 x222 -1 x230 -1 x238 -1 x246 -1 x254 -1 x262 -1 x270 -1 x278 >= -10;
+1 x135 +1 x143 +1 x151 +1 x159 +1 x167 +1 x175 +1 x183 +1 x191 +1 x199 +1 x207 +1 x215 +1 x223 +1 x231 +1 x239 +1 x247 +1 x255 +1 x263 +1 x271 +1 x279 >= 9;
-1 x135 -1 x143 -1 x151 -1 x159 -1 x167 -1 x175 -1 x183 -1 x191 -1 x199 -1 x207 -1 x215 -1 x223 -1 x231 -1 x239 -1 x247 -1 x255 -1 x263 -1 x271 -1 x279 >= -10;
+1 x136 +1 x144 +1 x152 +1 x160 +1 x168 +1 x176 +1 x184 +1 x192 +1 x200 +1 x208 +1 x216 +1 x224 +1 x232 +1 x240 +1 x248 +1 x256 +1 x264 +1 x272 +1 x280 >= 9;
-1 x136 -1 x144 -1 x152 -1 x160 -1 x168 -1 x176 -1 x184 -1 x192 -1 x200 -1 x208 -1 x216 -1 x224 -1 x232 -1 x240 -1 x248 -1 x256 -1 x264 -1 x272 -1 x280 >= -10;
+1 x137 +1 x145 +1 x153 +1 x161 +1 x169 +1 x177 +1 x185 +1 x193 +1 x201 +1 x209 +1 x217 +1 x225 +1 x233 +1 x241 +1 x249 +1 x257 +1 x265 +1 x273 +1 x281 >= 9;
-1 x137 -1 x145 -1 x153 -1 x161 -1 x169 -1 x177 -1 x185 -1 x193 -1 x201 -1 x209 -1 x217 -1 x225 -1 x233 -1 x241 -1 x249 -1 x257 -1 x265 -1 x273 -1 x281 >= -10;
+1 x138 +1 x146 +1 x154 +1 x162 +1 x170 +1 x178 +1 x186 +1 x194 +1 x202 +1 x210 +1 x218 +1 x226 +1 x234 +1 x242 +1 x250 +1 x258 +1 x266 +1 x274 +1 x282 >= 9;
-1 x138 -1 x146 -1 x154 -1 x162 -1 x170 -1 x178 -1 x186 -1 x194 -1 x202 -1 x210 -1 x218 -1 x226 -1 x234 -1 x242 -1 x250 -1 x258 -1 x266 -1 x274 -1 x282 >= -10;
+1 x139 +1 x147 +1 x155 +1 x163 +1 x171 +1 x179 +1 x187 +1 x195 +1 x203 +1 x211 +1 x219 +1 x227 +1 x235 +1 x243 +1 x251 +1 x259 +1 x267 +1 x275 +1 x283 >= 9;
-1 x139 -1 x147 -1 x155 -1 x163 -1 x171 -1 x179 -1 x187 -1 x195 -1 x203 -1 x211 -1 x219 -1 x227 -1 x235 -1 x243 -1 x251 -1 x259 -1 x267 -1 x275 -1 x283 >= -10;
+1 x140 +1 x148 +1 x156 +1 x164 +1 x172 +1 x180 +1 x188 +1 x196 +1 x204 +1 x212 +1 x220 +1 x228 +1 x236 +1 x244 +1 x252 +1 x260 +1 x268 +1 x276 +1 x284 >= 9;
-1 x140 -1 x148 -1 x156 -1 x164 -1 x172 -1 x180 -1 x188 -1 x196 -1 x204 -1 x212 -1 x220 -1 x228 -1 x236 -1 x244 -1 x252 -1 x260 -1 x268 -1 x276 -1 x284 >= -10;
+1 x141 +1 x149 +1 x157 +1 x165 +1 x173 +1 x181 +1 x189 +1 x197 +1 x205 +1 x213 +1 x221 +1 x229 +1 x237 +1 x245 +1 x253 +1 x261 +1 x269 +1 x277 +1 x285 >= 9;
-1 x141 -1 x149 -1 x157 -1 x165 -1 x173 -1 x181 -1 x189 -1 x197 -1 x205 -1 x213 -1 x221 -1 x229 -1 x237 -1 x245 -1 x253 -1 x261 -1 x269 -1 x277 -1 x285 >= -10;
+1 x142 +1 x150 +1 x158 +1 x166 +1 x174 +1 x182 +1 x190 +1 x198 +1 x206 +1 x214 +1 x222 +1 x230 +1 x238 +1 x246 +1 x254 +1 x262 +1 x270 +1 x278 +1 x286 >= 9;
-1 x142 -1 x150 -1 x158 -1 x166 -1 x174 -1 x182 -1 x190 -1 x198 -1 x206 -1 x214 -1 x222 -1 x230 -1 x238 -1 x246 -1 x254 -1 x262 -1 x270 -1 x278 -1 x286 >= -10;
+1 x143 +1 x151 +1 x159 +1 x167 +1 x175 +1 x183 +1 x191 +1 x199 +1 x207 +1 x215 +1 x223 +1 x231 +1 x239 +1 x247 +1 x255 +1 x263 +1 x271 +1 x279 +1 x287 >= 9;
-1 x143 -1 x151 -1 x159 -1 x167 -1 x175 -1 x183 -1 x191 -1 x199 -1 x207 -1 x215 -1 x223 -1 x231 -1 x239 -1 x247 -1 x255 -1 x263 -1 x271 -1 x279 -1 x287 >= -10;
+1 x144 +1 x152 +1 x160 +1 x168 +1 x176 +1 x184 +1 x192 +1 x200 +1 x208 +1 x216 +1 x224 +1 x232 +1 x240 +1 x248 +1 x256 +1 x264 +1 x272 +1 x280 +1 x288 >= 9;
-1 x144 -1 x152 -1 x160 -1 x168 -1 x176 -1 x184 -1 x192 -1 x200 -1 x208 -1 x216 -1 x224 -1 x232 -1 x240 -1 x248 -1 x256 -1 x264 -1 x272 -1 x280 -1 x288 >= -10;
+1 x145 +1 x153 +1 x161 +1 x169 +1 x177 +1 x185 +1 x193 +1 x201 +1 x209 +1 x217 +1 x225 +1 x233 +1 x241 +1 x249 +1 x257 +1 x265 +1 x273 +1 x281 +1 x289 >= 9;
-1 x145 -1 x153 -1 x161 -1 x169 -1 x177 -1 x185 -1 x193 -1 x201 -1 x209 -1 x217 -1 x225 -1 x233 -1 x241 -1 x249 -1 x257 -1 x265 -1 x273 -1 x281 -1 x289 >= -10;
+1 x146 +1 x154 +1 x162 +1 x170 +1 x178 +1 x186 +1 x194 +1 x202 +1 x210 +1 x218 +1 x226 +1 x234 +1 x242 +1 x250 +1 x258 +1 x266 +1 x274 +1 x282 +1 x290 >= 9;
-1 x146 -1 x154 -1 x162 -1 x170 -1 x178 -1 x186 -1 x194 -1 x202 -1 x210 -1 x218 -1 x226 -1 x234 -1 x242 -1 x250 -1 x258 -1 x266 -1 x274 -1 x282 -1 x290 >= -10;
+1 x147 +1 x155 +1 x163 +1 x171 +1 x179 +1 x187 +1 x195 +1 x203 +1 x211 +1 x219 +1 x227 +1 x235 +1 x243 +1 x251 +1 x259 +1 x267 +1 x275 +1 x283 +1 x291 >= 9;
-1 x147 -1 x155 -1 x163 -1 x171 -1 x179 -1 x187 -1 x195 -1 x203 -1 x211 -1 x219 -1 x227 -1 x235 -1 x243 -1 x251 -1 x259 -1 x267 -1 x275 -1 x283 -1 x291 >= -10;
+1 x148 +1 x156 +1 x164 +1 x172 +1 x180 +1 x188 +1 x196 +1 x204 +1 x212 +1 x220 +1 x228 +1 x236 +1 x244 +1 x252 +1 x260 +1 x268 +1 x276 +1 x284 +1 x292 >= 9;
-1 x148 -1 x156 -1 x164 -1 x172 -1 x180 -1 x188 -1 x196 -1 x204 -1 x212 -1 x220 -1 x228 -1 x236 -1 x244 -1 x252 -1 x260 -1 x268 -1 x276 -1 x284 -1 x292 >= -10;
+1 x149 +1 x157 +1 x165 +1 x173 +1 x181 +1 x189 +1 x197 +1 x205 +1 x213 +1 x221 +1 x229 +1 x237 +1 x245 +1 x253 +1 x261 +1 x269 +1 x277 +1 x285 +1 x293 >= 9;
-1 x149 -1 x157 -1 x165 -1 x173 -1 x181 -1 x189 -1 x197 -1 x205 -1 x213 -1 x221 -1 x229 -1 x237 -1 x245 -1 x253 -1 x261 -1 x269 -1 x277 -1 x285 -1 x293 >= -10;
+1 x150 +1 x158 +1 x166 +1 x174 +1 x182 +1 x190 +1 x198 +1 x206 +1 x214 +1 x222 +1 x230 +1 x238 +1 x246 +1 x254 +1 x262 +1 x270 +1 x278 +1 x286 +1 x294 >= 9;
-1 x150 -1 x158 -1 x166 -1 x174 -1 x182 -1 x190 -1 x198 -1 x206 -1 x214 -1 x222 -1 x230 -1 x238 -1 x246 -1 x254 -1 x262 -1 x270 -1 x278 -1 x286 -1 x294 >= -10;
+1 x151 +1 x159 +1 x167 +1 x175 +1 x183 +1 x191 +1 x199 +1 x207 +1 x215 +1 x223 +1 x231 +1 x239 +1 x247 +1 x255 +1 x263 +1 x271 +1 x279 +1 x287 +1 x295 >= 9;
-1 x151 -1 x159 -1 x167 -1 x175 -1 x183 -1 x191 -1 x199 -1 x207 -1 x215 -1 x223 -1 x231 -1 x239 -1 x247 -1 x255 -1 x263 -1 x271 -1 x279 -1 x287 -1 x295 >= -10;
+1 x152 +1 x160 +1 x168 +1 x176 +1 x184 +1 x192 +1 x200 +1 x208 +1 x216 +1 x224 +1 x232 +1 x240 +1 x248 +1 x256 +1 x264 +1 x272 +1 x280 +1 x288 +1 x296 >= 9;
-1 x152 -1 x160 -1 x168 -1 x176 -1 x184 -1 x192 -1 x200 -1 x208 -1 x216 -1 x224 -1 x232 -1 x240 -1 x248 -1 x256 -1 x264 -1 x272 -1 x280 -1 x288 -1 x296 >= -10;
+1 x153 +1 x161 +1 x169 +1 x177 +1 x185 +1 x193 +1 x201 +1 x209 +1 x217 +1 x225 +1 x233 +1 x241 +1 x249 +1 x257 +1 x265 +1 x273 +1 x281 +1 x289 +1 x297 >= 9;
-1 x153 -1 x161 -1 x169 -1 x177 -1 x185 -1 x193 -1 x201 -1 x209 -1 x217 -1 x225 -1 x233 -1 x241 -1 x249 -1 x257 -1 x265 -1 x273 -1 x281 -1 x289 -1 x297 >= -10;
+1 x154 +1 x162 +1 x170 +1 x178 +1 x186 +1 x194 +1 x202 +1 x210 +1 x218 +1 x226 +1 x234 +1 x242 +1 x250 +1 x258 +1 x266 +1 x274 +1 x282 +1 x290 +1 x298 >= 9;
-1 x154 -1 x162 -1 x170 -1 x178 -1 x186 -1 x194 -1 x202 -1 x210 -1 x218 -1 x226 -1 x234 -1 x242 -1 x250 -1 x258 -1 x266 -1 x274 -1 x282 -1 x290 -1 x298 >= -10;
+1 x155 +1 x163 +1 x171 +1 x179 +1 x187 +1 x195 +1 x203 +1 x211 +1 x219 +1 x227 +1 x235 +1 x243 +1 x251 +1 x259 +1 x267 +1 x275 +1 x283 +1 x291 +1 x299 >= 9;
-1 x155 -1 x163 -1 x171 -1 x179 -1 x187 -1 x195 -1 x203 -1 x211 -1 x219 -1 x227 -1 x235 -1 x243 -1 x251 -1 x259 -1 x267 -1 x275 -1 x283 -1 x291 -1 x299 >= -10;
+1 x156 +1 x164 +1 x172 +1 x180 +1 x188 +1 x196 +1 x204 +1 x212 +1 x220 +1 x228 +1 x236 +1 x244 +1 x252 +1 x260 +1 x268 +1 x276 +1 x284 +1 x292 +1 x300 >= 9;
-1 x156 -1 x164 -1 x172 -1 x180 -1 x188 -1 x196 -1 x204 -1 x212 -1 x220 -1 x228 -1 x236 -1 x244 -1 x252 -1 x260 -1 x268 -1 x276 -1 x284 -1 x292 -1 x300 >= -10;
+1 x157 +1 x165 +1 x173 +1 x181 +1 x189 +1 x197 +1 x205 +1 x213 +1 x221 +1 x229 +1 x237 +1 x245 +1 x253 +1 x261 +1 x269 +1 x277 +1 x285 +1 x293 +1 x301 >= 9;
-1 x157 -1 x165 -1 x173 -1 x181 -1 x189 -1 x197 -1 x205 -1 x213 -1 x221 -1 x229 -1 x237 -1 x245 -1 x253 -1 x261 -1 x269 -1 x277 -1 x285 -1 x293 -1 x301 >= -10;
+1 x158 +1 x166 +1 x174 +1 x182 +1 x190 +1 x198 +1 x206 +1 x214 +1 x222 +1 x230 +1 x238 +1 x246 +1 x254 +1 x262 +1 x270 +1 x278 +1 x286 +1 x294 +1 x302 >= 9;
-1 x158 -1 x166 -1 x174 -1 x182 -1 x190 -1 x198 -1 x206 -1 x214 -1 x222 -1 x230 -1 x238 -1 x246 -1 x254 -1 x262 -1 x270 -1 x278 -1 x286 -1 x294 -1 x302 >= -10;
+1 x159 +1 x167 +1 x175 +1 x183 +1 x191 +1 x199 +1 x207 +1 x215 +1 x223 +1 x231 +1 x239 +1 x247 +1 x255 +1 x263 +1 x271 +1 x279 +1 x287 +1 x295 +1 x303 >= 9;
-1 x159 -1 x167 -1 x175 -1 x183 -1 x191 -1 x199 -1 x207 -1 x215 -1 x223 -1 x231 -1 x239 -1 x247 -1 x255 -1 x263 -1 x271 -1 x279 -1 x287 -1 x295 -1 x303 >= -10;
+1 x160 +1 x168 +1 x176 +1 x184 +1 x192 +1 x200 +1 x208 +1 x216 +1 x224 +1 x232 +1 x240 +1 x248 +1 x256 +1 x264 +1 x272 +1 x280 +1 x288 +1 x296 +1 x304 >= 9;
-1 x160 -1 x168 -1 x176 -1 x184 -1 x192 -1 x200 -1 x208 -1 x216 -1 x224 -1 x232 -1 x240 -1 x248 -1 x256 -1 x264 -1 x272 -1 x280 -1 x288 -1 x296 -1 x304 >= -10;
+1 x161 +1 x169 +1 x177 +1 x185 +1 x193 +1 x201 +1 x209 +1 x217 +1 x225 +1 x233 +1 x241 +1 x249 +1 x257 +1 x265 +1 x273 +1 x281 +1 x289 +1 x297 +1 x305 >= 9;
-1 x161 -1 x169 -1 x177 -1 x185 -1 x193 -1 x201 -1 x209 -1 x217 -1 x225 -1 x233 -1 x241 -1 x249 -1 x257 -1 x265 -1 x273 -1 x281 -1 x289 -1 x297 -1 x305 >= -10;
+1 x162 +1 x170 +1 x178 +1 x186 +1 x194 +1 x202 +1 x210 +1 x218 +1 x226 +1 x234 +1 x242 +1 x250 +1 x258 +1 x266 +1 x274 +1 x282 +1 x290 +1 x298 +1 x306 >= 9;
-1 x162 -1 x170 -1 x178 -1 x186 -1 x194 -1 x202 -1 x210 -1 x218 -1 x226 -1 x234 -1 x242 -1 x250 -1 x258 -1 x266 -1 x274 -1 x282 -1 x290 -1 x298 -1 x306 >= -10;
+1 x163 +1 x171 +1 x179 +1 x187 +1 x195 +1 x203 +1 x211 +1 x219 +1 x227 +1 x235 +1 x243 +1 x251 +1 x259 +1 x267 +1 x275 +1 x283 +1 x291 +1 x299 +1 x307 >= 9;
-1 x163 -1 x171 -1 x179 -1 x187 -1 x195 -1 x203 -1 x211 -1 x219 -1 x227 -1 x235 -1 x243 -1 x251 -1 x259 -1 x267 -1 x275 -1 x283 -1 x291 -1 x299 -1 x307 >= -10;
+1 x164 +1 x172 +1 x180 +1 x188 +1 x196 +1 x204 +1 x212 +1 x220 +1 x228 +1 x236 +1 x244 +1 x252 +1 x260 +1 x268 +1 x276 +1 x284 +1 x292 +1 x300 +1 x308 >= 9;
-1 x164 -1 x172 -1 x180 -1 x188 -1 x196 -1 x204 -1 x212 -1 x220 -1 x228 -1 x236 -1 x244 -1 x252 -1 x260 -1 x268 -1 x276 -1 x284 -1 x292 -1 x300 -1 x308 >= -10;
+1 x165 +1 x173 +1 x181 +1 x189 +1 x197 +1 x205 +1 x213 +1 x221 +1 x229 +1 x237 +1 x245 +1 x253 +1 x261 +1 x269 +1 x277 +1 x285 +1 x293 +1 x301 +1 x309 >= 9;
-1 x165 -1 x173 -1 x181 -1 x189 -1 x197 -1 x205 -1 x213 -1 x221 -1 x229 -1 x237 -1 x245 -1 x253 -1 x261 -1 x269 -1 x277 -1 x285 -1 x293 -1 x301 -1 x309 >= -10;
+1 x166 +1 x174 +1 x182 +1 x190 +1 x198 +1 x206 +1 x214 +1 x222 +1 x230 +1 x238 +1 x246 +1 x254 +1 x262 +1 x270 +1 x278 +1 x286 +1 x294 +1 x302 +1 x310 >= 9;
-1 x166 -1 x174 -1 x182 -1 x190 -1 x198 -1 x206 -1 x214 -1 x222 -1 x230 -1 x238 -1 x246 -1 x254 -1 x262 -1 x270 -1 x278 -1 x286 -1 x294 -1 x302 -1 x310 >= -10;
+1 x167 +1 x175 +1 x183 +1 x191 +1 x199 +1 x207 +1 x215 +1 x223 +1 x231 +1 x239 +1 x247 +1 x255 +1 x263 +1 x271 +1 x279 +1 x287 +1 x295 +1 x303 +1 x311 >= 9;
-1 x167 -1 x175 -1 x183 -1 x191 -1 x199 -1 x207 -1 x215 -1 x223 -1 x231 -1 x239 -1 x247 -1 x255 -1 x263 -1 x271 -1 x279 -1 x287 -1 x295 -1 x303 -1 x311 >= -10;
+1 x168 +1 x176 +1 x184 +1 x192 +1 x200 +1 x208 +1 x216 +1 x224 +1 x232 +1 x240 +1 x248 +1 x256 +1 x264 +1 x272 +1 x280 +1 x288 +1 x296 +1 x304 +1 x312 >= 9;
-1 x168 -1 x176 -1 x184 -1 x192 -1 x200 -1 x208 -1 x216 -1 x224 -1 x232 -1 x240 -1 x248 -1 x256 -1 x264 -1 x272 -1 x280 -1 x288 -1 x296 -1 x304 -1 x312 >= -10;
+1 x169 +1 x177 +1 x185 +1 x193 +1 x201 +1 x209 +1 x217 +1 x225 +1 x233 +1 x241 +1 x249 +1 x257 +1 x265 +1 x273 +1 x281 +1 x289 +1 x297 +1 x305 +1 x313 >= 9;
-1 x169 -1 x177 -1 x185 -1 x193 -1 x201 -1 x209 -1 x217 -1 x225 -1 x233 -1 x241 -1 x249 -1 x257 -1 x265 -1 x273 -1 x281 -1 x289 -1 x297 -1 x305 -1 x313 >= -10;
+1 x170 +1 x178 +1 x186 +1 x194 +1 x202 +1 x210 +1 x218 +1 x226 +1 x234 +1 x242 +1 x250 +1 x258 +1 x266 +1 x274 +1 x282 +1 x290 +1 x298 +1 x306 +1 x314 >= 9;
-1 x170 -1 x178 -1 x186 -1 x194 -1 x202 -1 x210 -1 x218 -1 x226 -1 x234 -1 x242 -1 x250 -1 x258 -1 x266 -1 x274 -1 x282 -1 x290 -1 x298 -1 x306 -1 x314 >= -10;
+1 x171 +1 x179 +1 x187 +1 x195 +1 x203 +1 x211 +1 x219 +1 x227 +1 x235 +1 x243 +1 x251 +1 x259 +1 x267 +1 x275 +1 x283 +1 x291 +1 x299 +1 x307 +1 x315 >= 9;
-1 x171 -1 x179 -1 x187 -1 x195 -1 x203 -1 x211 -1 x219 -1 x227 -1 x235 -1 x243 -1 x251 -1 x259 -1 x267 -1 x275 -1 x283 -1 x291 -1 x299 -1 x307 -1 x315 >= -10;
+1 x172 +1 x180 +1 x188 +1 x196 +1 x204 +1 x212 +1 x220 +1 x228 +1 x236 +1 x244 +1 x252 +1 x260 +1 x268 +1 x276 +1 x284 +1 x292 +1 x300 +1 x308 +1 x316 >= 9;
-1 x172 -1 x180 -1 x188 -1 x196 -1 x204 -1 x212 -1 x220 -1 x228 -1 x236 -1 x244 -1 x252 -1 x260 -1 x268 -1 x276 -1 x284 -1 x292 -1 x300 -1 x308 -1 x316 >= -10;
+1 x173 +1 x181 +1 x189 +1 x197 +1 x205 +1 x213 +1 x221 +1 x229 +1 x237 +1 x245 +1 x253 +1 x261 +1 x269 +1 x277 +1 x285 +1 x293 +1 x301 +1 x309 +1 x317 >= 9;
-1 x173 -1 x181 -1 x189 -1 x197 -1 x205 -1 x213 -1 x221 -1 x229 -1 x237 -1 x245 -1 x253 -1 x261 -1 x269 -1 x277 -1 x285 -1 x293 -1 x301 -1 x309 -1 x317 >= -10;
+1 x174 +1 x182 +1 x190 +1 x198 +1 x206 +1 x214 +1 x222 +1 x230 +1 x238 +1 x246 +1 x254 +1 x262 +1 x270 +1 x278 +1 x286 +1 x294 +1 x302 +1 x310 +1 x318 >= 9;
-1 x174 -1 x182 -1 x190 -1 x198 -1 x206 -1 x214 -1 x222 -1 x230 -1 x238 -1 x246 -1 x254 -1 x262 -1 x270 -1 x278 -1 x286 -1 x294 -1 x302 -1 x310 -1 x318 >= -10;
+1 x175 +1 x183 +1 x191 +1 x199 +1 x207 +1 x215 +1 x223 +1 x231 +1 x239 +1 x247 +1 x255 +1 x263 +1 x271 +1 x279 +1 x287 +1 x295 +1 x303 +1 x311 +1 x319 >= 9;
-1 x175 -1 x183 -1 x191 -1 x199 -1 x207 -1 x215 -1 x223 -1 x231 -1 x239 -1 x247 -1 x255 -1 x263 -1 x271 -1 x279 -1 x287 -1 x295 -1 x303 -1 x311 -1 x319 >= -10;
+1 x176 +1 x184 +1 x192 +1 x200 +1 x208 +1 x216 +1 x224 +1 x232 +1 x240 +1 x248 +1 x256 +1 x264 +1 x272 +1 x280 +1 x288 +1 x296 +1 x304 +1 x312 +1 x320 >= 9;
-1 x176 -1 x184 -1 x192 -1 x200 -1 x208 -1 x216 -1 x224 -1 x232 -1 x240 -1 x248 -1 x256 -1 x264 -1 x272 -1 x280 -1 x288 -1 x296 -1 x304 -1 x312 -1 x320 >= -10;
+1 x177 +1 x185 +1 x193 +1 x201 +1 x209 +1 x217 +1 x225 +1 x233 +1 x241 +1 x249 +1 x257 +1 x265 +1 x273 +1 x281 +1 x289 +1 x297 +1 x305 +1 x313 +1 x321 >= 9;
-1 x177 -1 x185 -1 x193 -1 x201 -1 x209 -1 x217 -1 x225 -1 x233 -1 x241 -1 x249 -1 x257 -1 x265 -1 x273 -1 x281 -1 x289 -1 x297 -1 x305 -1 x313 -1 x321 >= -10;
+1 x178 +1 x186 +1 x194 +1 x202 +1 x210 +1 x218 +1 x226 +1 x234 +1 x242 +1 x250 +1 x258 +1 x266 +1 x274 +1 x282 +1 x290 +1 x298 +1 x306 +1 x314 +1 x322 >= 9;
-1 x178 -1 x186 -1 x194 -1 x202 -1 x210 -1 x218 -1 x226 -1 x234 -1 x242 -1 x250 -1 x258 -1 x266 -1 x274 -1 x282 -1 x290 -1 x298 -1 x306 -1 x314 -1 x322 >= -10;
+1 x179 +1 x187 +1 x195 +1 x203 +1 x211 +1 x219 +1 x227 +1 x235 +1 x243 +1 x251 +1 x259 +1 x267 +1 x275 +1 x283 +1 x291 +1 x299 +1 x307 +1 x315 +1 x323 >= 9;
-1 x179 -1 x187 -1 x195 -1 x203 -1 x211 -1 x219 -1 x227 -1 x235 -1 x243 -1 x251 -1 x259 -1 x267 -1 x275 -1 x283 -1 x291 -1 x299 -1 x307 -1 x315 -1 x323 >= -10;
+1 x180 +1 x188 +1 x196 +1 x204 +1 x212 +1 x220 +1 x228 +1 x236 +1 x244 +1 x252 +1 x260 +1 x268 +1 x276 +1 x284 +1 x292 +1 x300 +1 x308 +1 x316 +1 x324 >= 9;
-1 x180 -1 x188 -1 x196 -1 x204 -1 x212 -1 x220 -1 x228 -1 x236 -1 x244 -1 x252 -1 x260 -1 x268 -1 x276 -1 x284 -1 x292 -1 x300 -1 x308 -1 x316 -1 x324 >= -10;
+1 x181 +1 x189 +1 x197 +1 x205 +1 x213 +1 x221 +1 x229 +1 x237 +1 x245 +1 x253 +1 x261 +1 x269 +1 x277 +1 x285 +1 x293 +1 x301 +1 x309 +1 x317 +1 x325 >= 9;
-1 x181 -1 x189 -1 x197 -1 x205 -1 x213 -1 x221 -1 x229 -1 x237 -1 x245 -1 x253 -1 x261 -1 x269 -1 x277 -1 x285 -1 x293 -1 x301 -1 x309 -1 x317 -1 x325 >= -10;
+1 x182 +1 x190 +1 x198 +1 x206 +1 x214 +1 x222 +1 x230 +1 x238 +1 x246 +1 x254 +1 x262 +1 x270 +1 x278 +1 x286 +1 x294 +1 x302 +1 x310 +1 x318 +1 x326 >= 9;
-1 x182 -1 x190 -1 x198 -1 x206 -1 x214 -1 x222 -1 x230 -1 x238 -1 x246 -1 x254 -1 x262 -1 x270 -1 x278 -1 x286 -1 x294 -1 x302 -1 x310 -1 x318 -1 x326 >= -10;
+1 x183 +1 x191 +1 x199 +1 x207 +1 x215 +1 x223 +1 x231 +1 x239 +1 x247 +1 x255 +1 x263 +1 x271 +1 x279 +1 x287 +1 x295 +1 x303 +1 x311 +1 x319 +1 x327 >= 9;
-1 x183 -1 x191 -1 x199 -1 x207 -1 x215 -1 x223 -1 x231 -1 x239 -1 x247 -1 x255 -1 x263 -1 x271 -1 x279 -1 x287 -1 x295 -1 x303 -1 x311 -1 x319 -1 x327 >= -10;
+1 x184 +1 x192 +1 x200 +1 x208 +1 x216 +1 x224 +1 x232 +1 x240 +1 x248 +1 x256 +1 x264 +1 x272 +1 x280 +1 x288 +1 x296 +1 x304 +1 x312 +1 x320 +1 x328 >= 9;
-1 x184 -1 x192 -1 x200 -1 x208 -1 x216 -1 x224 -1 x232 -1 x240 -1 x248 -1 x256 -1 x264 -1 x272 -1 x280 -1 x288 -1 x296 -1 x304 -1 x312 -1 x320 -1 x328 >= -10;
+1 x185 +1 x193 +1 x201 +1 x209 +1 x217 +1 x225 +1 x233 +1 x241 +1 x249 +1 x257 +1 x265 +1 x273 +1 x281 +1 x289 +1 x297 +1 x305 +1 x313 +1 x321 +1 x329 >= 9;
-1 x185 -1 x193 -1 x201 -1 x209 -1 x217 -1 x225 -1 x233 -1 x241 -1 x249 -1 x257 -1 x265 -1 x273 -1 x281 -1 x289 -1 x297 -1 x305 -1 x313 -1 x321 -1 x329 >= -10;
+1 x186 +1 x194 +1 x202 +1 x210 +1 x218 +1 x226 +1 x234 +1 x242 +1 x250 +1 x258 +1 x266 +1 x274 +1 x282 +1 x290 +1 x298 +1 x306 +1 x314 +1 x322 +1 x330 >= 9;
-1 x186 -1 x194 -1 x202 -1 x210 -1 x218 -1 x226 -1 x234 -1 x242 -1 x250 -1 x258 -1 x266 -1 x274 -1 x282 -1 x290 -1 x298 -1 x306 -1 x314 -1 x322 -1 x330 >= -10;
+1 x187 +1 x195 +1 x203 +1 x211 +1 x219 +1 x227 +1 x235 +1 x243 +1 x251 +1 x259 +1 x267 +1 x275 +1 x283 +1 x291 +1 x299 +1 x307 +1 x315 +1 x323 +1 x331 >= 9;
-1 x187 -1 x195 -1 x203 -1 x211 -1 x219 -1 x227 -1 x235 -1 x243 -1 x251 -1 x259 -1 x267 -1 x275 -1 x283 -1 x291 -1 x299 -1 x307 -1 x315 -1 x323 -1 x331 >= -10;
+1 x188 +1 x196 +1 x204 +1 x212 +1 x220 +1 x228 +1 x236 +1 x244 +1 x252 +1 x260 +1 x268 +1 x276 +1 x284 +1 x292 +1 x300 +1 x308 +1 x316 +1 x324 +1 x332 >= 9;
-1 x188 -1 x196 -1 x204 -1 x212 -1 x220 -1 x228 -1 x236 -1 x244 -1 x252 -1 x260 -1 x268 -1 x276 -1 x284 -1 x292 -1 x300 -1 x308 -1 x316 -1 x324 -1 x332 >= -10;
+1 x189 +1 x197 +1 x205 +1 x213 +1 x221 +1 x229 +1 x237 +1 x245 +1 x253 +1 x261 +1 x269 +1 x277 +1 x285 +1 x293 +1 x301 +1 x309 +1 x317 +1 x325 +1 x333 >= 9;
-1 x189 -1 x197 -1 x205 -1 x213 -1 x221 -1 x229 -1 x237 -1 x245 -1 x253 -1 x261 -1 x269 -1 x277 -1 x285 -1 x293 -1 x301 -1 x309 -1 x317 -1 x325 -1 x333 >= -10;
+1 x190 +1 x198 +1 x206 +1 x214 +1 x222 +1 x230 +1 x238 +1 x246 +1 x254 +1 x262 +1 x270 +1 x278 +1 x286 +1 x294 +1 x302 +1 x310 +1 x318 +1 x326 +1 x334 >= 9;
-1 x190 -1 x198 -1 x206 -1 x214 -1 x222 -1 x230 -1 x238 -1 x246 -1 x254 -1 x262 -1 x270 -1 x278 -1 x286 -1 x294 -1 x302 -1 x310 -1 x318 -1 x326 -1 x334 >= -10;
+1 x191 +1 x199 +1 x207 +1 x215 +1 x223 +1 x231 +1 x239 +1 x247 +1 x255 +1 x263 +1 x271 +1 x279 +1 x287 +1 x295 +1 x303 +1 x311 +1 x319 +1 x327 +1 x335 >= 9;
-1 x191 -1 x199 -1 x207 -1 x215 -1 x223 -1 x231 -1 x239 -1 x247 -1 x255 -1 x263 -1 x271 -1 x279 -1 x287 -1 x295 -1 x303 -1 x311 -1 x319 -1 x327 -1 x335 >= -10;
+1 x192 +1 x200 +1 x208 +1 x216 +1 x224 +1 x232 +1 x240 +1 x248 +1 x256 +1 x264 +1 x272 +1 x280 +1 x288 +1 x296 +1 x304 +1 x312 +1 x320 +1 x328 +1 x336 >= 9;
-1 x192 -1 x200 -1 x208 -1 x216 -1 x224 -1 x232 -1 x240 -1 x248 -1 x256 -1 x264 -1 x272 -1 x280 -1 x288 -1 x296 -1 x304 -1 x312 -1 x320 -1 x328 -1 x336 >= -10;
+1 x193 +1 x201 +1 x209 +1 x217 +1 x225 +1 x233 +1 x241 +1 x249 +1 x257 +1 x265 +1 x273 +1 x281 +1 x289 +1 x297 +1 x305 +1 x313 +1 x321 +1 x329 +1 x337 >= 9;
-1 x193 -1 x201 -1 x209 -1 x217 -1 x225 -1 x233 -1 x241 -1 x249 -1 x257 -1 x265 -1 x273 -1 x281 -1 x289 -1 x297 -1 x305 -1 x313 -1 x321 -1 x329 -1 x337 >= -10;
+1 x194 +1 x202 +1 x210 +1 x218 +1 x226 +1 x234 +1 x242 +1 x250 +1 x258 +1 x266 +1 x274 +1 x282 +1 x290 +1 x298 +1 x306 +1 x314 +1 x322 +1 x330 +1 x338 >= 9;
-1 x194 -1 x202 -1 x210 -1 x218 -1 x226 -1 x234 -1 x242 -1 x250 -1 x258 -1 x266 -1 x274 -1 x282 -1 x290 -1 x298 -1 x306 -1 x314 -1 x322 -1 x330 -1 x338 >= -10;
+1 x195 +1 x203 +1 x211 +1 x219 +1 x227 +1 x235 +1 x243 +1 x251 +1 x259 +1 x267 +1 x275 +1 x283 +1 x291 +1 x299 +1 x307 +1 x315 +1 x323 +1 x331 +1 x339 >= 9;
-1 x195 -1 x203 -1 x211 -1 x219 -1 x227 -1 x235 -1 x243 -1 x251 -1 x259 -1 x267 -1 x275 -1 x283 -1 x291 -1 x299 -1 x307 -1 x315 -1 x323 -1 x331 -1 x339 >= -10;
+1 x196 +1 x204 +1 x212 +1 x220 +1 x228 +1 x236 +1 x244 +1 x252 +1 x260 +1 x268 +1 x276 +1 x284 +1 x292 +1 x300 +1 x308 +1 x316 +1 x324 +1 x332 +1 x340 >= 9;
-1 x196 -1 x204 -1 x212 -1 x220 -1 x228 -1 x236 -1 x244 -1 x252 -1 x260 -1 x268 -1 x276 -1 x284 -1 x292 -1 x300 -1 x308 -1 x316 -1 x324 -1 x332 -1 x340 >= -10;
+1 x197 +1 x205 +1 x213 +1 x221 +1 x229 +1 x237 +1 x245 +1 x253 +1 x261 +1 x269 +1 x277 +1 x285 +1 x293 +1 x301 +1 x309 +1 x317 +1 x325 +1 x333 +1 x341 >= 9;
-1 x197 -1 x205 -1 x213 -1 x221 -1 x229 -1 x237 -1 x245 -1 x253 -1 x261 -1 x269 -1 x277 -1 x285 -1 x293 -1 x301 -1 x309 -1 x317 -1 x325 -1 x333 -1 x341 >= -10;
+1 x198 +1 x206 +1 x214 +1 x222 +1 x230 +1 x238 +1 x246 +1 x254 +1 x262 +1 x270 +1 x278 +1 x286 +1 x294 +1 x302 +1 x310 +1 x318 +1 x326 +1 x334 +1 x342 >= 9;
-1 x198 -1 x206 -1 x214 -1 x222 -1 x230 -1 x238 -1 x246 -1 x254 -1 x262 -1 x270 -1 x278 -1 x286 -1 x294 -1 x302 -1 x310 -1 x318 -1 x326 -1 x334 -1 x342 >= -10;
+1 x199 +1 x207 +1 x215 +1 x223 +1 x231 +1 x239 +1 x247 +1 x255 +1 x263 +1 x271 +1 x279 +1 x287 +1 x295 +1 x303 +1 x311 +1 x319 +1 x327 +1 x335 +1 x343 >= 9;
-1 x199 -1 x207 -1 x215 -1 x223 -1 x231 -1 x239 -1 x247 -1 x255 -1 x263 -1 x271 -1 x279 -1 x287 -1 x295 -1 x303 -1 x311 -1 x319 -1 x327 -1 x335 -1 x343 >= -10;
+1 x200 +1 x208 +1 x216 +1 x224 +1 x232 +1 x240 +1 x248 +1 x256 +1 x264 +1 x272 +1 x280 +1 x288 +1 x296 +1 x304 +1 x312 +1 x320 +1 x328 +1 x336 +1 x344 >= 9;
-1 x200 -1 x208 -1 x216 -1 x224 -1 x232 -1 x240 -1 x248 -1 x256 -1 x264 -1 x272 -1 x280 -1 x288 -1 x296 -1 x304 -1 x312 -1 x320 -1 x328 -1 x336 -1 x344 >= -10;
+1 x1 +1 x10 +1 x19 +1 x28 +1 x37 +1 x46 +1 x55 +1 x64 +1 x73 +1 x82 +1 x91 +1 x100 +1 x109 +1 x118 +1 x127 +1 x136 +1 x145 +1 x154 +1 x163 >= 9;
-1 x1 -1 x10 -1 x19 -1 x28 -1 x37 -1 x46 -1 x55 -1 x64 -1 x73 -1 x82 -1 x91 -1 x100 -1 x109 -1 x118 -1 x127 -1 x136 -1 x145 -1 x154 -1 x163 >= -10;
+1 x2 +1 x11 +1 x20 +1 x29 +1 x38 +1 x47 +1 x56 +1 x65 +1 x74 +1 x83 +1 x92 +1 x101 +1 x110 +1 x119 +1 x128 +1 x137 +1 x146 +1 x155 +1 x164 >= 9;
-1 x2 -1 x11 -1 x20 -1 x29 -1 x38 -1 x47 -1 x56 -1 x65 -1 x74 -1 x83 -1 x92 -1 x101 -1 x110 -1 x119 -1 x128 -1 x137 -1 x146 -1 x155 -1 x164 >= -10;
+1 x3 +1 x12 +1 x21 +1 x30 +1 x39 +1 x48 +1 x57 +1 x66 +1 x75 +1 x84 +1 x93 +1 x102 +1 x111 +1 x120 +1 x129 +1 x138 +1 x147 +1 x156 +1 x165 >= 9;
-1 x3 -1 x12 -1 x21 -1 x30 -1 x39 -1 x48 -1 x57 -1 x66 -1 x75 -1 x84 -1 x93 -1 x102 -1 x111 -1 x120 -1 x129 -1 x138 -1 x147 -1 x156 -1 x165 >= -10;
+1 x4 +1 x13 +1 x22 +1 x31 +1 x40 +1 x49 +1 x58 +1 x67 +1 x76 +1 x85 +1 x94 +1 x103 +1 x112 +1 x121 +1 x130 +1 x139 +1 x148 +1 x157 +1 x166 >= 9;
-1 x4 -1 x13 -1 x22 -1 x31 -1 x40 -1 x49 -1 x58 -1 x67 -1 x76 -1 x85 -1 x94 -1 x103 -1 x112 -1 x121 -1 x130 -1 x139 -1 x148 -1 x157 -1 x166 >= -10;
+1 x5 +1 x14 +1 x23 +1 x32 +1 x41 +1 x50 +1 x59 +1 x68 +1 x77 +1 x86 +1 x95 +1 x104 +1 x113 +1 x122 +1 x131 +1 x140 +1 x149 +1 x158 +1 x167 >= 9;
-1 x5 -1 x14 -1 x23 -1 x32 -1 x41 -1 x50 -1 x59 -1 x68 -1 x77 -1 x86 -1 x95 -1 x104 -1 x113 -1 x122 -1 x131 -1 x140 -1 x149 -1 x158 -1 x167 >= -10;
+1 x6 +1 x15 +1 x24 +1 x33 +1 x42 +1 x51 +1 x60 +1 x69 +1 x78 +1 x87 +1 x96 +1 x105 +1 x114 +1 x123 +1 x132 +1 x141 +1 x150 +1 x159 +1 x168 >= 9;
-1 x6 -1 x15 -1 x24 -1 x33 -1 x42 -1 x51 -1 x60 -1 x69 -1 x78 -1 x87 -1 x96 -1 x105 -1 x114 -1 x123 -1 x132 -1 x141 -1 x150 -1 x159 -1 x168 >= -10;
+1 x7 +1 x16 +1 x25 +1 x34 +1 x43 +1 x52 +1 x61 +1 x70 +1 x79 +1 x88 +1 x97 +1 x106 +1 x115 +1 x124 +1 x133 +1 x142 +1 x151 +1 x160 +1 x169 >= 9;
-1 x7 -1 x16 -1 x25 -1 x34 -1 x43 -1 x52 -1 x61 -1 x70 -1 x79 -1 x88 -1 x97 -1 x106 -1 x115 -1 x124 -1 x133 -1 x142 -1 x151 -1 x160 -1 x169 >= -10;
+1 x8 +1 x17 +1 x26 +1 x35 +1 x44 +1 x53 +1 x62 +1 x71 +1 x80 +1 x89 +1 x98 +1 x107 +1 x116 +1 x125 +1 x134 +1 x143 +1 x152 +1 x161 +1 x170 >= 9;
-1 x8 -1 x17 -1 x26 -1 x35 -1 x44 -1 x53 -1 x62 -1 x71 -1 x80 -1 x89 -1 x98 -1 x107 -1 x116 -1 x125 -1 x134 -1 x143 -1 x152 -1 x161 -1 x170 >= -10;
+1 x9 +1 x18 +1 x27 +1 x36 +1 x45 +1 x54 +1 x63 +1 x72 +1 x81 +1 x90 +1 x99 +1 x108 +1 x117 +1 x126 +1 x135 +1 x144 +1 x153 +1 x162 +1 x171 >= 9;
-1 x9 -1 x18 -1 x27 -1 x36 -1 x45 -1 x54 -1 x63 -1 x72 -1 x81 -1 x90 -1 x99 -1 x108 -1 x117 -1 x126 -1 x135 -1 x144 -1 x153 -1 x162 -1 x171 >= -10;
+1 x10 +1 x19 +1 x28 +1 x37 +1 x46 +1 x55 +1 x64 +1 x73 +1 x82 +1 x91 +1 x100 +1 x109 +1 x118 +1 x127 +1 x136 +1 x145 +1 x154 +1 x163 +1 x172 >= 9;
-1 x10 -1 x19 -1 x28 -1 x37 -1 x46 -1 x55 -1 x64 -1 x73 -1 x82 -1 x91 -1 x100 -1 x109 -1 x118 -1 x127 -1 x136 -1 x145 -1 x154 -1 x163 -1 x172 >= -10;
+1 x11 +1 x20 +1 x29 +1 x38 +1 x47 +1 x56 +1 x65 +1 x74 +1 x83 +1 x92 +1 x101 +1 x110 +1 x119 +1 x128 +1 x137 +1 x146 +1 x155 +1 x164 +1 x173 >= 9;
-1 x11 -1 x20 -1 x29 -1 x38 -1 x47 -1 x56 -1 x65 -1 x74 -1 x83 -1 x92 -1 x101 -1 x110 -1 x119 -1 x128 -1 x137 -1 x146 -1 x155 -1 x164 -1 x173 >= -10;
+1 x12 +1 x21 +1 x30 +1 x39 +1 x48 +1 x57 +1 x66 +1 x75 +1 x84 +1 x93 +1 x102 +1 x111 +1 x120 +1 x129 +1 x138 +1 x147 +1 x156 +1 x165 +1 x174 >= 9;
-1 x12 -1 x21 -1 x30 -1 x39 -1 x48 -1 x57 -1 x66 -1 x75 -1 x84 -1 x93 -1 x102 -1 x111 -1 x120 -1 x129 -1 x138 -1 x147 -1 x156 -1 x165 -1 x174 >= -10;
+1 x13 +1 x22 +1 x31 +1 x40 +1 x49 +1 x58 +1 x67 +1 x76 +1 x85 +1 x94 +1 x103 +1 x112 +1 x121 +1 x130 +1 x139 +1 x148 +1 x157 +1 x166 +1 x175 >= 9;
-1 x13 -1 x22 -1 x31 -1 x40 -1 x49 -1 x58 -1 x67 -1 x76 -1 x85 -1 x94 -1 x103 -1 x112 -1 x121 -1 x130 -1 x139 -1 x148 -1 x157 -1 x166 -1 x175 >= -10;
+1 x14 +1 x23 +1 x32 +1 x41 +1 x50 +1 x59 +1 x68 +1 x77 +1 x86 +1 x95 +1 x104 +1 x113 +1 x122 +1 x131 +1 x140 +1 x149 +1 x158 +1 x167 +1 x176 >= 9;
-1 x14 -1 x23 -1 x32 -1 x41 -1 x50 -1 x59 -1 x68 -1 x77 -1 x86 -1 x95 -1 x104 -1 x113 -1 x122 -1 x131 -1 x140 -1 x149 -1 x158 -1 x167 -1 x176 >= -10;
+1 x15 +1 x24 +1 x33 +1 x42 +1 x51 +1 x60 +1 x69 +1 x78 +1 x87 +1 x96 +1 x105 +1 x114 +1 x123 +1 x132 +1 x141 +1 x150 +1 x159 +1 x168 +1 x177 >= 9;
-1 x15 -1 x24 -1 x33 -1 x42 -1 x51 -1 x60 -1 x69 -1 x78 -1 x87 -1 x96 -1 x105 -1 x114 -1 x123 -1 x132 -1 x141 -1 x150 -1 x159 -1 x168 -1 x177 >= -10;
+1 x16 +1 x25 +1 x34 +1 x43 +1 x52 +1 x61 +1 x70 +1 x79 +1 x88 +1 x97 +1 x106 +1 x115 +1 x124 +1 x133 +1 x142 +1 x151 +1 x160 +1 x169 +1 x178 >= 9;
-1 x16 -1 x25 -1 x34 -1 x43 -1 x52 -1 x61 -1 x70 -1 x79 -1 x88 -1 x97 -1 x106 -1 x115 -1 x124 -1 x133 -1 x142 -1 x151 -1 x160 -1 x169 -1 x178 >= -10;
+1 x17 +1 x26 +1 x35 +1 x44 +1 x53 +1 x62 +1 x71 +1 x80 +1 x89 +1 x98 +1 x107 +1 x116 +1 x125 +1 x134 +1 x143 +1 x152 +1 x161 +1 x170 +1 x179 >= 9;
-1 x17 -1 x26 -1 x35 -1 x44 -1 x53 -1 x62 -1 x71 -1 x80 -1 x89 -1 x98 -1 x107 -1 x116 -1 x125 -1 x134 -1 x143 -1 x152 -1 x161 -1 x170 -1 x179 >= -10;
+1 x18 +1 x27 +1 x36 +1 x45 +1 x54 +1 x63 +1 x72 +1 x81 +1 x90 +1 x99 +1 x108 +1 x117 +1 x126 +1 x135 +1 x144 +1 x153 +1 x162 +1 x171 +1 x180 >= 9;
-1 x18 -1 x27 -1 x36 -1 x45 -1 x54 -1 x63 -1 x72 -1 x81 -1 x90 -1 x99 -1 x108 -1 x117 -1 x126 -1 x135 -1 x144 -1 x153 -1 x162 -1 x171 -1 x180 >= -10;
+1 x19 +1 x28 +1 x37 +1 x46 +1 x55 +1 x64 +1 x73 +1 x82 +1 x91 +1 x100 +1 x109 +1 x118 +1 x127 +1 x136 +1 x145 +1 x154 +1 x163 +1 x172 +1 x181 >= 9;
-1 x19 -1 x28 -1 x37 -1 x46 -1 x55 -1 x64 -1 x73 -1 x82 -1 x91 -1 x100 -1 x109 -1 x118 -1 x127 -1 x136 -1 x145 -1 x154 -1 x163 -1 x172 -1 x181 >= -10;
+1 x20 +1 x29 +1 x38 +1 x47 +1 x56 +1 x65 +1 x74 +1 x83 +1 x92 +1 x101 +1 x110 +1 x119 +1 x128 +1 x137 +1 x146 +1 x155 +1 x164 +1 x173 +1 x182 >= 9;
-1 x20 -1 x29 -1 x38 -1 x47 -1 x56 -1 x65 -1 x74 -1 x83 -1 x92 -1 x101 -1 x110 -1 x119 -1 x128 -1 x137 -1 x146 -1 x155 -1 x164 -1 x173 -1 x182 >= -10;
+1 x21 +1 x30 +1 x39 +1 x48 +1 x57 +1 x66 +1 x75 +1 x84 +1 x93 +1 x102 +1 x111 +1 x120 +1 x129 +1 x138 +1 x147 +1 x156 +1 x165 +1 x174 +1 x183 >= 9;
-1 x21 -1 x30 -1 x39 -1 x48 -1 x57 -1 x66 -1 x75 -1 x84 -1 x93 -1 x102 -1 x111 -1 x120 -1 x129 -1 x138 -1 x147 -1 x156 -1 x165 -1 x174 -1 x183 >= -10;
+1 x22 +1 x31 +1 x40 +1 x49 +1 x58 +1 x67 +1 x76 +1 x85 +1 x94 +1 x103 +1 x112 +1 x121 +1 x130 +1 x139 +1 x148 +1 x157 +1 x166 +1 x175 +1 x184 >= 9;
-1 x22 -1 x31 -1 x40 -1 x49 -1 x58 -1 x67 -1 x76 -1 x85 -1 x94 -1 x103 -1 x112 -1 x121 -1 x130 -1 x139 -1 x148 -1 x157 -1 x166 -1 x175 -1 x184 >= -10;
+1 x23 +1 x32 +1 x41 +1 x50 +1 x59 +1 x68 +1 x77 +1 x86 +1 x95 +1 x104 +1 x113 +1 x122 +1 x131 +1 x140 +1 x149 +1 x158 +1 x167 +1 x176 +1 x185 >= 9;
-1 x23 -1 x32 -1 x41 -1 x50 -1 x59 -1 x68 -1 x77 -1 x86 -1 x95 -1 x104 -1 x113 -1 x122 -1 x131 -1 x140 -1 x149 -1 x158 -1 x167 -1 x176 -1 x185 >= -10;
+1 x24 +1 x33 +1 x42 +1 x51 +1 x60 +1 x69 +1 x78 +1 x87 +1 x96 +1 x105 +1 x114 +1 x123 +1 x132 +1 x141 +1 x150 +1 x159 +1 x168 +1 x177 +1 x186 >= 9;
-1 x24 -1 x33 -1 x42 -1 x51 -1 x60 -1 x69 -1 x78 -1 x87 -1 x96 -1 x105 -1 x114 -1 x123 -1 x132 -1 x141 -1 x150 -1 x159 -1 x168 -1 x177 -1 x186 >= -10;
+1 x25 +1 x34 +1 x43 +1 x52 +1 x61 +1 x70 +1 x79 +1 x88 +1 x97 +1 x106 +1 x115 +1 x124 +1 x133 +1 x142 +1 x151 +1 x160 +1 x169 +1 x178 +1 x187 >= 9;
-1 x25 -1 x34 -1 x43 -1 x52 -1 x61 -1 x70 -1 x79 -1 x88 -1 x97 -1 x106 -1 x115 -1 x124 -1 x133 -1 x142 -1 x151 -1 x160 -1 x169 -1 x178 -1 x187 >= -10;
+1 x26 +1 x35 +1 x44 +1 x53 +1 x62 +1 x71 +1 x80 +1 x89 +1 x98 +1 x107 +1 x116 +1 x125 +1 x134 +1 x143 +1 x152 +1 x161 +1 x170 +1 x179 +1 x188 >= 9;
-1 x26 -1 x35 -1 x44 -1 x53 -1 x62 -1 x71 -1 x80 -1 x89 -1 x98 -1 x107 -1 x116 -1 x125 -1 x134 -1 x143 -1 x152 -1 x161 -1 x170 -1 x179 -1 x188 >= -10;
+1 x27 +1 x36 +1 x45 +1 x54 +1 x63 +1 x72 +1 x81 +1 x90 +1 x99 +1 x108 +1 x117 +1 x126 +1 x135 +1 x144 +1 x153 +1 x162 +1 x171 +1 x180 +1 x189 >= 9;
-1 x27 -1 x36 -1 x45 -1 x54 -1 x63 -1 x72 -1 x81 -1 x90 -1 x99 -1 x108 -1 x117 -1 x126 -1 x135 -1 x144 -1 x153 -1 x162 -1 x171 -1 x180 -1 x189 >= -10;
+1 x28 +1 x37 +1 x46 +1 x55 +1 x64 +1 x73 +1 x82 +1 x91 +1 x100 +1 x109 +1 x118 +1 x127 +1 x136 +1 x145 +1 x154 +1 x163 +1 x172 +1 x181 +1 x190 >= 9;
-1 x28 -1 x37 -1 x46 -1 x55 -1 x64 -1 x73 -1 x82 -1 x91 -1 x100 -1 x109 -1 x118 -1 x127 -1 x136 -1 x145 -1 x154 -1 x163 -1 x172 -1 x181 -1 x190 >= -10;
+1 x29 +1 x38 +1 x47 +1 x56 +1 x65 +1 x74 +1 x83 +1 x92 +1 x101 +1 x110 +1 x119 +1 x128 +1 x137 +1 x146 +1 x155 +1 x164 +1 x173 +1 x182 +1 x191 >= 9;
-1 x29 -1 x38 -1 x47 -1 x56 -1 x65 -1 x74 -1 x83 -1 x92 -1 x101 -1 x110 -1 x119 -1 x128 -1 x137 -1 x146 -1 x155 -1 x164 -1 x173 -1 x182 -1 x191 >= -10;
+1 x30 +1 x39 +1 x48 +1 x57 +1 x66 +1 x75 +1 x84 +1 x93 +1 x102 +1 x111 +1 x120 +1 x129 +1 x138 +1 x147 +1 x156 +1 x165 +1 x174 +1 x183 +1 x192 >= 9;
-1 x30 -1 x39 -1 x48 -1 x57 -1 x66 -1 x75 -1 x84 -1 x93 -1 x102 -1 x111 -1 x120 -1 x129 -1 x138 -1 x147 -1 x156 -1 x165 -1 x174 -1 x183 -1 x192 >= -10;
+1 x31 +1 x40 +1 x49 +1 x58 +1 x67 +1 x76 +1 x85 +1 x94 +1 x103 +1 x112 +1 x121 +1 x130 +1 x139 +1 x148 +1 x157 +1 x166 +1 x175 +1 x184 +1 x193 >= 9;
-1 x31 -1 x40 -1 x49 -1 x58 -1 x67 -1 x76 -1 x85 -1 x94 -1 x103 -1 x112 -1 x121 -1 x130 -1 x139 -1 x148 -1 x157 -1 x166 -1 x175 -1 x184 -1 x193 >= -10;
+1 x32 +1 x41 +1 x50 +1 x59 +1 x68 +1 x77 +1 x86 +1 x95 +1 x104 +1 x113 +1 x122 +1 x131 +1 x140 +1 x149 +1 x158 +1 x167 +1 x176 +1 x185 +1 x194 >= 9;
-1 x32 -1 x41 -1 x50 -1 x59 -1 x68 -1 x77 -1 x86 -1 x95 -1 x104 -1 x113 -1 x122 -1 x131 -1 x140 -1 x149 -1 x158 -1 x167 -1 x176 -1 x185 -1 x194 >= -10;
+1 x33 +1 x42 +1 x51 +1 x60 +1 x69 +1 x78 +1 x87 +1 x96 +1 x105 +1 x114 +1 x123 +1 x132 +1 x141 +1 x150 +1 x159 +1 x168 +1 x177 +1 x186 +1 x195 >= 9;
-1 x33 -1 x42 -1 x51 -1 x60 -1 x69 -1 x78 -1 x87 -1 x96 -1 x105 -1 x114 -1 x123 -1 x132 -1 x141 -1 x150 -1 x159 -1 x168 -1 x177 -1 x186 -1 x195 >= -10;
+1 x34 +1 x43 +1 x52 +1 x61 +1 x70 +1 x79 +1 x88 +1 x97 +1 x106 +1 x115 +1 x124 +1 x133 +1 x142 +1 x151 +1 x160 +1 x169 +1 x178 +1 x187 +1 x196 >= 9;
-1 x34 -1 x43 -1 x52 -1 x61 -1 x70 -1 x79 -1 x88 -1 x97 -1 x106 -1 x115 -1 x124 -1 x133 -1 x142 -1 x151 -1 x160 -1 x169 -1 x178 -1 x187 -1 x196 >= -10;
+1 x35 +1 x44 +1 x53 +1 x62 +1 x71 +1 x80 +1 x89 +1 x98 +1 x107 +1 x116 +1 x125 +1 x134 +1 x143 +1 x152 +1 x161 +1 x170 +1 x179 +1 x188 +1 x197 >= 9;
-1 x35 -1 x44 -1 x53 -1 x62 -1 x71 -1 x80 -1 x89 -1 x98 -1 x107 -1 x116 -1 x125 -1 x134 -1 x143 -1 x152 -1 x161 -1 x170 -1 x179 -1 x188 -1 x197 >= -10;
+1 x36 +1 x45 +1 x54 +1 x63 +1 x72 +1 x81 +1 x90 +1 x99 +1 x108 +1 x117 +1 x126 +1 x135 +1 x144 +1 x153 +1 x162 +1 x171 +1 x180 +1 x189 +1 x198 >= 9;
-1 x36 -1 x45 -1 x54 -1 x63 -1 x72 -1 x81 -1 x90 -1 x99 -1 x108 -1 x117 -1 x126 -1 x135 -1 x144 -1 x153 -1 x162 -1 x171 -1 x180 -1 x189 -1 x198 >= -10;
+1 x37 +1 x46 +1 x55 +1 x64 +1 x73 +1 x82 +1 x91 +1 x100 +1 x109 +1 x118 +1 x127 +1 x136 +1 x145 +1 x154 +1 x163 +1 x172 +1 x181 +1 x190 +1 x199 >= 9;
-1 x37 -1 x46 -1 x55 -1 x64 -1 x73 -1 x82 -1 x91 -1 x100 -1 x109 -1 x118 -1 x127 -1 x136 -1 x145 -1 x154 -1 x163 -1 x172 -1 x181 -1 x190 -1 x199 >= -10;
+1 x38 +1 x47 +1 x56 +1 x65 +1 x74 +1 x83 +1 x92 +1 x101 +1 x110 +1 x119 +1 x128 +1 x137 +1 x146 +1 x155 +1 x164 +1 x173 +1 x182 +1 x191 +1 x200 >= 9;
-1 x38 -1 x47 -1 x56 -1 x65 -1 x74 -1 x83 -1 x92 -1 x101 -1 x110 -1 x119 -1 x128 -1 x137 -1 x146 -1 x155 -1 x164 -1 x173 -1 x182 -1 x191 -1 x200 >= -10;
+1 x39 +1 x48 +1 x57 +1 x66 +1 x75 +1 x84 +1 x93 +1 x102 +1 x111 +1 x120 +1 x129 +1 x138 +1 x147 +1 x156 +1 x165 +1 x174 +1 x183 +1 x192 +1 x201 >= 9;
-1 x39 -1 x48 -1 x57 -1 x66 -1 x75 -1 x84 -1 x93 -1 x102 -1 x111 -1 x120 -1 x129 -1 x138 -1 x147 -1 x156 -1 x165 -1 x174 -1 x183 -1 x192 -1 x201 >= -10;
+1 x40 +1 x49 +1 x58 +1 x67 +1 x76 +1 x85 +1 x94 +1 x103 +1 x112 +1 x121 +1 x130 +1 x139 +1 x148 +1 x157 +1 x166 +1 x175 +1 x184 +1 x193 +1 x202 >= 9;
-1 x40 -1 x49 -1 x58 -1 x67 -1 x76 -1 x85 -1 x94 -1 x103 -1 x112 -1 x121 -1 x130 -1 x139 -1 x148 -1 x157 -1 x166 -1 x175 -1 x184 -1 x193 -1 x202 >= -10;
+1 x41 +1 x50 +1 x59 +1 x68 +1 x77 +1 x86 +1 x95 +1 x104 +1 x113 +1 x122 +1 x131 +1 x140 +1 x149 +1 x158 +1 x167 +1 x176 +1 x185 +1 x194 +1 x203 >= 9;
-1 x41 -1 x50 -1 x59 -1 x68 -1 x77 -1 x86 -1 x95 -1 x104 -1 x113 -1 x122 -1 x131 -1 x140 -1 x149 -1 x158 -1 x167 -1 x176 -1 x185 -1 x194 -1 x203 >= -10;
+1 x42 +1 x51 +1 x60 +1 x69 +1 x78 +1 x87 +1 x96 +1 x105 +1 x114 +1 x123 +1 x132 +1 x141 +1 x150 +1 x159 +1 x168 +1 x177 +1 x186 +1 x195 +1 x204 >= 9;
-1 x42 -1 x51 -1 x60 -1 x69 -1 x78 -1 x87 -1 x96 -1 x105 -1 x114 -1 x123 -1 x132 -1 x141 -1 x150 -1 x159 -1 x168 -1 x177 -1 x186 -1 x195 -1 x204 >= -10;
+1 x43 +1 x52 +1 x61 +1 x70 +1 x79 +1 x88 +1 x97 +1 x106 +1 x115 +1 x124 +1 x133 +1 x142 +1 x151 +1 x160 +1 x169 +1 x178 +1 x187 +1 x196 +1 x205 >= 9;
-1 x43 -1 x52 -1 x61 -1 x70 -1 x79 -1 x88 -1 x97 -1 x106 -1 x115 -1 x124 -1 x133 -1 x142 -1 x151 -1 x160 -1 x169 -1 x178 -1 x187 -1 x196 -1 x205 >= -10;
+1 x44 +1 x53 +1 x62 +1 x71 +1 x80 +1 x89 +1 x98 +1 x107 +1 x116 +1 x125 +1 x134 +1 x143 +1 x152 +1 x161 +1 x170 +1 x179 +1 x188 +1 x197 +1 x206 >= 9;
-1 x44 -1 x53 -1 x62 -1 x71 -1 x80 -1 x89 -1 x98 -1 x107 -1 x116 -1 x125 -1 x134 -1 x143 -1 x152 -1 x161 -1 x170 -1 x179 -1 x188 -1 x197 -1 x206 >= -10;
+1 x45 +1 x54 +1 x63 +1 x72 +1 x81 +1 x90 +1 x99 +1 x108 +1 x117 +1 x126 +1 x135 +1 x144 +1 x153 +1 x162 +1 x171 +1 x180 +1 x189 +1 x198 +1 x207 >= 9;
-1 x45 -1 x54 -1 x63 -1 x72 -1 x81 -1 x90 -1 x99 -1 x108 -1 x117 -1 x126 -1 x135 -1 x144 -1 x153 -1 x162 -1 x171 -1 x180 -1 x189 -1 x198 -1 x207 >= -10;
+1 x46 +1 x55 +1 x64 +1 x73 +1 x82 +1 x91 +1 x100 +1 x109 +1 x118 +1 x127 +1 x136 +1 x145 +1 x154 +1 x163 +1 x172 +1 x181 +1 x190 +1 x199 +1 x208 >= 9;
-1 x46 -1 x55 -1 x64 -1 x73 -1 x82 -1 x91 -1 x100 -1 x109 -1 x118 -1 x127 -1 x136 -1 x145 -1 x154 -1 x163 -1 x172 -1 x181 -1 x190 -1 x199 -1 x208 >= -10;
+1 x47 +1 x56 +1 x65 +1 x74 +1 x83 +1 x92 +1 x101 +1 x110 +1 x119 +1 x128 +1 x137 +1 x146 +1 x155 +1 x164 +1 x173 +1 x182 +1 x191 +1 x200 +1 x209 >= 9;
-1 x47 -1 x56 -1 x65 -1 x74 -1 x83 -1 x92 -1 x101 -1 x110 -1 x119 -1 x128 -1 x137 -1 x146 -1 x155 -1 x164 -1 x173 -1 x182 -1 x191 -1 x200 -1 x209 >= -10;
+1 x48 +1 x57 +1 x66 +1 x75 +1 x84 +1 x93 +1 x102 +1 x111 +1 x120 +1 x129 +1 x138 +1 x147 +1 x156 +1 x165 +1 x174 +1 x183 +1 x192 +1 x201 +1 x210 >= 9;
-1 x48 -1 x57 -1 x66 -1 x75 -1 x84 -1 x93 -1 x102 -1 x111 -1 x120 -1 x129 -1 x138 -1 x147 -1 x156 -1 x165 -1 x174 -1 x183 -1 x192 -1 x201 -1 x210 >= -10;
+1 x49 +1 x58 +1 x67 +1 x76 +1 x85 +1 x94 +1 x103 +1 x112 +1 x121 +1 x130 +1 x139 +1 x148 +1 x157 +1 x166 +1 x175 +1 x184 +1 x193 +1 x202 +1 x211 >= 9;
-1 x49 -1 x58 -1 x67 -1 x76 -1 x85 -1 x94 -1 x103 -1 x112 -1 x121 -1 x130 -1 x139 -1 x148 -1 x157 -1 x166 -1 x175 -1 x184 -1 x193 -1 x202 -1 x211 >= -10;
+1 x50 +1 x59 +1 x68 +1 x77 +1 x86 +1 x95 +1 x104 +1 x113 +1 x122 +1 x131 +1 x140 +1 x149 +1 x158 +1 x167 +1 x176 +1 x185 +1 x194 +1 x203 +1 x212 >= 9;
-1 x50 -1 x59 -1 x68 -1 x77 -1 x86 -1 x95 -1 x104 -1 x113 -1 x122 -1 x131 -1 x140 -1 x149 -1 x158 -1 x167 -1 x176 -1 x185 -1 x194 -1 x203 -1 x212 >= -10;
+1 x51 +1 x60 +1 x69 +1 x78 +1 x87 +1 x96 +1 x105 +1 x114 +1 x123 +1 x132 +1 x141 +1 x150 +1 x159 +1 x168 +1 x177 +1 x186 +1 x195 +1 x204 +1 x213 >= 9;
-1 x51 -1 x60 -1 x69 -1 x78 -1 x87 -1 x96 -1 x105 -1 x114 -1 x123 -1 x132 -1 x141 -1 x150 -1 x159 -1 x168 -1 x177 -1 x186 -1 x195 -1 x204 -1 x213 >= -10;
+1 x52 +1 x61 +1 x70 +1 x79 +1 x88 +1 x97 +1 x106 +1 x115 +1 x124 +1 x133 +1 x142 +1 x151 +1 x160 +1 x169 +1 x178 +1 x187 +1 x196 +1 x205 +1 x214 >= 9;
-1 x52 -1 x61 -1 x70 -1 x79 -1 x88 -1 x97 -1 x106 -1 x115 -1 x124 -1 x133 -1 x142 -1 x151 -1 x160 -1 x169 -1 x178 -1 x187 -1 x196 -1 x205 -1 x214 >= -10;
+1 x53 +1 x62 +1 x71 +1 x80 +1 x89 +1 x98 +1 x107 +1 x116 +1 x125 +1 x134 +1 x143 +1 x152 +1 x161 +1 x170 +1 x179 +1 x188 +1 x197 +1 x206 +1 x215 >= 9;
-1 x53 -1 x62 -1 x71 -1 x80 -1 x89 -1 x98 -1 x107 -1 x116 -1 x125 -1 x134 -1 x143 -1 x152 -1 x161 -1 x170 -1 x179 -1 x188 -1 x197 -1 x206 -1 x215 >= -10;
+1 x54 +1 x63 +1 x72 +1 x81 +1 x90 +1 x99 +1 x108 +1 x117 +1 x126 +1 x135 +1 x144 +1 x153 +1 x162 +1 x171 +1 x180 +1 x189 +1 x198 +1 x207 +1 x216 >= 9;
-1 x54 -1 x63 -1 x72 -1 x81 -1 x90 -1 x99 -1 x108 -1 x117 -1 x126 -1 x135 -1 x144 -1 x153 -1 x162 -1 x171 -1 x180 -1 x189 -1 x198 -1 x207 -1 x216 >= -10;
+1 x55 +1 x64 +1 x73 +1 x82 +1 x91 +1 x100 +1 x109 +1 x118 +1 x127 +1 x136 +1 x145 +1 x154 +1 x163 +1 x172 +1 x181 +1 x190 +1 x199 +1 x208 +1 x217 >= 9;
-1 x55 -1 x64 -1 x73 -1 x82 -1 x91 -1 x100 -1 x109 -1 x118 -1 x127 -1 x136 -1 x145 -1 x154 -1 x163 -1 x172 -1 x181 -1 x190 -1 x199 -1 x208 -1 x217 >= -10;
+1 x56 +1 x65 +1 x74 +1 x83 +1 x92 +1 x101 +1 x110 +1 x119 +1 x128 +1 x137 +1 x146 +1 x155 +1 x164 +1 x173 +1 x182 +1 x191 +1 x200 +1 x209 +1 x218 >= 9;
-1 x56 -1 x65 -1 x74 -1 x83 -1 x92 -1 x101 -1 x110 -1 x119 -1 x128 -1 x137 -1 x146 -1 x155 -1 x164 -1 x173 -1 x182 -1 x191 -1 x200 -1 x209 -1 x218 >= -10;
+1 x57 +1 x66 +1 x75 +1 x84 +1 x93 +1 x102 +1 x111 +1 x120 +1 x129 +1 x138 +1 x147 +1 x156 +1 x165 +1 x174 +1 x183 +1 x192 +1 x201 +1 x210 +1 x219 >= 9;
-1 x57 -1 x66 -1 x75 -1 x84 -1 x93 -1 x102 -1 x111 -1 x120 -1 x129 -1 x138 -1 x147 -1 x156 -1 x165 -1 x174 -1 x183 -1 x192 -1 x201 -1 x210 -1 x219 >= -10;
+1 x58 +1 x67 +1 x76 +1 x85 +1 x94 +1 x103 +1 x112 +1 x121 +1 x130 +1 x139 +1 x148 +1 x157 +1 x166 +1 x175 +1 x184 +1 x193 +1 x202 +1 x211 +1 x220 >= 9;
-1 x58 -1 x67 -1 x76 -1 x85 -1 x94 -1 x103 -1 x112 -1 x121 -1 x130 -1 x139 -1 x148 -1 x157 -1 x166 -1 x175 -1 x184 -1 x193 -1 x202 -1 x211 -1 x220 >= -10;
+1 x59 +1 x68 +1 x77 +1 x86 +1 x95 +1 x104 +1 x113 +1 x122 +1 x131 +1 x140 +1 x149 +1 x158 +1 x167 +1 x176 +1 x185 +1 x194 +1 x203 +1 x212 +1 x221 >= 9;
-1 x59 -1 x68 -1 x77 -1 x86 -1 x95 -1 x104 -1 x113 -1 x122 -1 x131 -1 x140 -1 x149 -1 x158 -1 x167 -1 x176 -1 x185 -1 x194 -1 x203 -1 x212 -1 x221 >= -10;
+1 x60 +1 x69 +1 x78 +1 x87 +1 x96 +1 x105 +1 x114 +1 x123 +1 x132 +1 x141 +1 x150 +1 x159 +1 x168 +1 x177 +1 x186 +1 x195 +1 x204 +1 x213 +1 x222 >= 9;
-1 x60 -1 x69 -1 x78 -1 x87 -1 x96 -1 x105 -1 x114 -1 x123 -1 x132 -1 x141 -1 x150 -1 x159 -1 x168 -1 x177 -1 x186 -1 x195 -1 x204 -1 x213 -1 x222 >= -10;
+1 x61 +1 x70 +1 x79 +1 x88 +1 x97 +1 x106 +1 x115 +1 x124 +1 x133 +1 x142 +1 x151 +1 x160 +1 x169 +1 x178 +1 x187 +1 x196 +1 x205 +1 x214 +1 x223 >= 9;
-1 x61 -1 x70 -1 x79 -1 x88 -1 x97 -1 x106 -1 x115 -1 x124 -1 x133 -1 x142 -1 x151 -1 x160 -1 x169 -1 x178 -1 x187 -1 x196 -1 x205 -1 x214 -1 x223 >= -10;
+1 x62 +1 x71 +1 x80 +1 x89 +1 x98 +1 x107 +1 x116 +1 x125 +1 x134 +1 x143 +1 x152 +1 x161 +1 x170 +1 x179 +1 x188 +1 x197 +1 x206 +1 x215 +1 x224 >= 9;
-1 x62 -1 x71 -1 x80 -1 x89 -1 x98 -1 x107 -1 x116 -1 x125 -1 x134 -1 x143 -1 x152 -1 x161 -1 x170 -1 x179 -1 x188 -1 x197 -1 x206 -1 x215 -1 x224 >= -10;
+1 x63 +1 x72 +1 x81 +1 x90 +1 x99 +1 x108 +1 x117 +1 x126 +1 x135 +1 x144 +1 x153 +1 x162 +1 x171 +1 x180 +1 x189 +1 x198 +1 x207 +1 x216 +1 x225 >= 9;
-1 x63 -1 x72 -1 x81 -1 x90 -1 x99 -1 x108 -1 x117 -1 x126 -1 x135 -1 x144 -1 x153 -1 x162 -1 x171 -1 x180 -1 x189 -1 x198 -1 x207 -1 x216 -1 x225 >= -10;
+1 x64 +1 x73 +1 x82 +1 x91 +1 x100 +1 x109 +1 x118 +1 x127 +1 x136 +1 x145 +1 x154 +1 x163 +1 x172 +1 x181 +1 x190 +1 x199 +1 x208 +1 x217 +1 x226 >= 9;
-1 x64 -1 x73 -1 x82 -1 x91 -1 x100 -1 x109 -1 x118 -1 x127 -1 x136 -1 x145 -1 x154 -1 x163 -1 x172 -1 x181 -1 x190 -1 x199 -1 x208 -1 x217 -1 x226 >= -10;
+1 x65 +1 x74 +1 x83 +1 x92 +1 x101 +1 x110 +1 x119 +1 x128 +1 x137 +1 x146 +1 x155 +1 x164 +1 x173 +1 x182 +1 x191 +1 x200 +1 x209 +1 x218 +1 x227 >= 9;
-1 x65 -1 x74 -1 x83 -1 x92 -1 x101 -1 x110 -1 x119 -1 x128 -1 x137 -1 x146 -1 x155 -1 x164 -1 x173 -1 x182 -1 x191 -1 x200 -1 x209 -1 x218 -1 x227 >= -10;
+1 x66 +1 x75 +1 x84 +1 x93 +1 x102 +1 x111 +1 x120 +1 x129 +1 x138 +1 x147 +1 x156 +1 x165 +1 x174 +1 x183 +1 x192 +1 x201 +1 x210 +1 x219 +1 x228 >= 9;
-1 x66 -1 x75 -1 x84 -1 x93 -1 x102 -1 x111 -1 x120 -1 x129 -1 x138 -1 x147 -1 x156 -1 x165 -1 x174 -1 x183 -1 x192 -1 x201 -1 x210 -1 x219 -1 x228 >= -10;
+1 x67 +1 x76 +1 x85 +1 x94 +1 x103 +1 x112 +1 x121 +1 x130 +1 x139 +1 x148 +1 x157 +1 x166 +1 x175 +1 x184 +1 x193 +1 x202 +1 x211 +1 x220 +1 x229 >= 9;
-1 x67 -1 x76 -1 x85 -1 x94 -1 x103 -1 x112 -1 x121 -1 x130 -1 x139 -1 x148 -1 x157 -1 x166 -1 x175 -1 x184 -1 x193 -1 x202 -1 x211 -1 x220 -1 x229 >= -10;
+1 x68 +1 x77 +1 x86 +1 x95 +1 x104 +1 x113 +1 x122 +1 x131 +1 x140 +1 x149 +1 x158 +1 x167 +1 x176 +1 x185 +1 x194 +1 x203 +1 x212 +1 x221 +1 x230 >= 9;
-1 x68 -1 x77 -1 x86 -1 x95 -1 x104 -1 x113 -1 x122 -1 x131 -1 x140 -1 x149 -1 x158 -1 x167 -1 x176 -1 x185 -1 x194 -1 x203 -1 x212 -1 x221 -1 x230 >= -10;
+1 x69 +1 x78 +1 x87 +1 x96 +1 x105 +1 x114 +1 x123 +1 x132 +1 x141 +1 x150 +1 x159 +1 x168 +1 x177 +1 x186 +1 x195 +1 x204 +1 x213 +1 x222 +1 x231 >= 9;
-1 x69 -1 x78 -1 x87 -1 x96 -1 x105 -1 x114 -1 x123 -1 x132 -1 x141 -1 x150 -1 x159 -1 x168 -1 x177 -1 x186 -1 x195 -1 x204 -1 x213 -1 x222 -1 x231 >= -10;
+1 x70 +1 x79 +1 x88 +1 x97 +1 x106 +1 x115 +1 x124 +1 x133 +1 x142 +1 x151 +1 x160 +1 x169 +1 x178 +1 x187 +1 x196 +1 x205 +1 x214 +1 x223 +1 x232 >= 9;
-1 x70 -1 x79 -1 x88 -1 x97 -1 x106 -1 x115 -1 x124 -1 x133 -1 x142 -1 x151 -1 x160 -1 x169 -1 x178 -1 x187 -1 x196 -1 x205 -1 x214 -1 x223 -1 x232 >= -10;
+1 x71 +1 x80 +1 x89 +1 x98 +1 x107 +1 x116 +1 x125 +1 x134 +1 x143 +1 x152 +1 x161 +1 x170 +1 x179 +1 x188 +1 x197 +1 x206 +1 x215 +1 x224 +1 x233 >= 9;
-1 x71 -1 x80 -1 x89 -1 x98 -1 x107 -1 x116 -1 x125 -1 x134 -1 x143 -1 x152 -1 x161 -1 x170 -1 x179 -1 x188 -1 x197 -1 x206 -1 x215 -1 x224 -1 x233 >= -10;
+1 x72 +1 x81 +1 x90 +1 x99 +1 x108 +1 x117 +1 x126 +1 x135 +1 x144 +1 x153 +1 x162 +1 x171 +1 x180 +1 x189 +1 x198 +1 x207 +1 x216 +1 x225 +1 x234 >= 9;
-1 x72 -1 x81 -1 x90 -1 x99 -1 x108 -1 x117 -1 x126 -1 x135 -1 x144 -1 x153 -1 x162 -1 x171 -1 x180 -1 x189 -1 x198 -1 x207 -1 x216 -1 x225 -1 x234 >= -10;
+1 x73 +1 x82 +1 x91 +1 x100 +1 x109 +1 x118 +1 x127 +1 x136 +1 x145 +1 x154 +1 x163 +1 x172 +1 x181 +1 x190 +1 x199 +1 x208 +1 x217 +1 x226 +1 x235 >= 9;
-1 x73 -1 x82 -1 x91 -1 x100 -1 x109 -1 x118 -1 x127 -1 x136 -1 x145 -1 x154 -1 x163 -1 x172 -1 x181 -1 x190 -1 x199 -1 x208 -1 x217 -1 x226 -1 x235 >= -10;
+1 x74 +1 x83 +1 x92 +1 x101 +1 x110 +1 x119 +1 x128 +1 x137 +1 x146 +1 x155 +1 x164 +1 x173 +1 x182 +1 x191 +1 x200 +1 x209 +1 x218 +1 x227 +1 x236 >= 9;
-1 x74 -1 x83 -1 x92 -1 x101 -1 x110 -1 x119 -1 x128 -1 x137 -1 x146 -1 x155 -1 x164 -1 x173 -1 x182 -1 x191 -1 x200 -1 x209 -1 x218 -1 x227 -1 x236 >= -10;
+1 x75 +1 x84 +1 x93 +1 x102 +1 x111 +1 x120 +1 x129 +1 x138 +1 x147 +1 x156 +1 x165 +1 x174 +1 x183 +1 x192 +1 x201 +1 x210 +1 x219 +1 x228 +1 x237 >= 9;
-1 x75 -1 x84 -1 x93 -1 x102 -1 x111 -1 x120 -1 x129 -1 x138 -1 x147 -1 x156 -1 x165 -1 x174 -1 x183 -1 x192 -1 x201 -1 x210 -1 x219 -1 x228 -1 x237 >= -10;
+1 x76 +1 x85 +1 x94 +1 x103 +1 x112 +1 x121 +1 x130 +1 x139 +1 x148 +1 x157 +1 x166 +1 x175 +1 x184 +1 x193 +1 x202 +1 x211 +1 x220 +1 x229 +1 x238 >= 9;
-1 x76 -1 x85 -1 x94 -1 x103 -1 x112 -1 x121 -1 x130 -1 x139 -1 x148 -1 x157 -1 x166 -1 x175 -1 x184 -1 x193 -1 x202 -1 x211 -1 x220 -1 x229 -1 x238 >= -10;
+1 x77 +1 x86 +1 x95 +1 x104 +1 x113 +1 x122 +1 x131 +1 x140 +1 x149 +1 x158 +1 x167 +1 x176 +1 x185 +1 x194 +1 x203 +1 x212 +1 x221 +1 x230 +1 x239 >= 9;
-1 x77 -1 x86 -1 x95 -1 x104 -1 x113 -1 x122 -1 x131 -1 x140 -1 x149 -1 x158 -1 x167 -1 x176 -1 x185 -1 x194 -1 x203 -1 x212 -1 x221 -1 x230 -1 x239 >= -10;
+1 x78 +1 x87 +1 x96 +1 x105 +1 x114 +1 x123 +1 x132 +1 x141 +1 x150 +1 x159 +1 x168 +1 x177 +1 x186 +1 x195 +1 x204 +1 x213 +1 x222 +1 x231 +1 x240 >= 9;
-1 x78 -1 x87 -1 x96 -1 x105 -1 x114 -1 x123 -1 x132 -1 x141 -1 x150 -1 x159 -1 x168 -1 x177 -1 x186 -1 x195 -1 x204 -1 x213 -1 x222 -1 x231 -1 x240 >= -10;
+1 x79 +1 x88 +1 x97 +1 x106 +1 x115 +1 x124 +1 x133 +1 x142 +1 x151 +1 x160 +1 x169 +1 x178 +1 x187 +1 x196 +1 x205 +1 x214 +1 x223 +1 x232 +1 x241 >= 9;
-1 x79 -1 x88 -1 x97 -1 x106 -1 x115 -1 x124 -1 x133 -1 x142 -1 x151 -1 x160 -1 x169 -1 x178 -1 x187 -1 x196 -1 x205 -1 x214 -1 x223 -1 x232 -1 x241 >= -10;
+1 x80 +1 x89 +1 x98 +1 x107 +1 x116 +1 x125 +1 x134 +1 x143 +1 x152 +1 x161 +1 x170 +1 x179 +1 x188 +1 x197 +1 x206 +1 x215 +1 x224 +1 x233 +1 x242 >= 9;
-1 x80 -1 x89 -1 x98 -1 x107 -1 x116 -1 x125 -1 x134 -1 x143 -1 x152 -1 x161 -1 x170 -1 x179 -1 x188 -1 x197 -1 x206 -1 x215 -1 x224 -1 x233 -1 x242 >= -10;
+1 x81 +1 x90 +1 x99 +1 x108 +1 x117 +1 x126 +1 x135 +1 x144 +1 x153 +1 x162 +1 x171 +1 x180 +1 x189 +1 x198 +1 x207 +1 x216 +1 x225 +1 x234 +1 x243 >= 9;
-1 x81 -1 x90 -1 x99 -1 x108 -1 x117 -1 x126 -1 x135 -1 x144 -1 x153 -1 x162 -1 x171 -1 x180 -1 x189 -1 x198 -1 x207 -1 x216 -1 x225 -1 x234 -1 x243 >= -10;
+1 x82 +1 x91 +1 x100 +1 x109 +1 x118 +1 x127 +1 x136 +1 x145 +1 x154 +1 x163 +1 x172 +1 x181 +1 x190 +1 x199 +1 x208 +1 x217 +1 x226 +1 x235 +1 x244 >= 9;
-1 x82 -1 x91 -1 x100 -1 x109 -1 x118 -1 x127 -1 x136 -1 x145 -1 x154 -1 x163 -1 x172 -1 x181 -1 x190 -1 x199 -1 x208 -1 x217 -1 x226 -1 x235 -1 x244 >= -10;
+1 x83 +1 x92 +1 x101 +1 x110 +1 x119 +1 x128 +1 x137 +1 x146 +1 x155 +1 x164 +1 x173 +1 x182 +1 x191 +1 x200 +1 x209 +1 x218 +1 x227 +1 x236 +1 x245 >= 9;
-1 x83 -1 x92 -1 x101 -1 x110 -1 x119 -1 x128 -1 x137 -1 x146 -1 x155 -1 x164 -1 x173 -1 x182 -1 x191 -1 x200 -1 x209 -1 x218 -1 x227 -1 x236 -1 x245 >= -10;
+1 x84 +1 x93 +1 x102 +1 x111 +1 x120 +1 x129 +1 x138 +1 x147 +1 x156 +1 x165 +1 x174 +1 x183 +1 x192 +1 x201 +1 x210 +1 x219 +1 x228 +1 x237 +1 x246 >= 9;
-1 x84 -1 x93 -1 x102 -1 x111 -1 x120 -1 x129 -1 x138 -1 x147 -1 x156 -1 x165 -1 x174 -1 x183 -1 x192 -1 x201 -1 x210 -1 x219 -1 x228 -1 x237 -1 x246 >= -10;
+1 x85 +1 x94 +1 x103 +1 x112 +1 x121 +1 x130 +1 x139 +1 x148 +1 x157 +1 x166 +1 x175 +1 x184 +1 x193 +1 x202 +1 x211 +1 x220 +1 x229 +1 x238 +1 x247 >= 9;
-1 x85 -1 x94 -1 x103 -1 x112 -1 x121 -1 x130 -1 x139 -1 x148 -1 x157 -1 x166 -1 x175 -1 x184 -1 x193 -1 x202 -1 x211 -1 x220 -1 x229 -1 x238 -1 x247 >= -10;
+1 x86 +1 x95 +1 x104 +1 x113 +1 x122 +1 x131 +1 x140 +1 x149 +1 x158 +1 x167 +1 x176 +1 x185 +1 x194 +1 x203 +1 x212 +1 x221 +1 x230 +1 x239 +1 x248 >= 9;
-1 x86 -1 x95 -1 x104 -1 x113 -1 x122 -1 x131 -1 x140 -1 x149 -1 x158 -1 x167 -1 x176 -1 x185 -1 x194 -1 x203 -1 x212 -1 x221 -1 x230 -1 x239 -1 x248 >= -10;
+1 x87 +1 x96 +1 x105 +1 x114 +1 x123 +1 x132 +1 x141 +1 x150 +1 x159 +1 x168 +1 x177 +1 x186 +1 x195 +1 x204 +1 x213 +1 x222 +1 x231 +1 x240 +1 x249 >= 9;
-1 x87 -1 x96 -1 x105 -1 x114 -1 x123 -1 x132 -1 x141 -1 x150 -1 x159 -1 x168 -1 x177 -1 x186 -1 x195 -1 x204 -1 x213 -1 x222 -1 x231 -1 x240 -1 x249 >= -10;
+1 x88 +1 x97 +1 x106 +1 x115 +1 x124 +1 x133 +1 x142 +1 x151 +1 x160 +1 x169 +1 x178 +1 x187 +1 x196 +1 x205 +1 x214 +1 x223 +1 x232 +1 x241 +1 x250 >= 9;
-1 x88 -1 x97 -1 x106 -1 x115 -1 x124 -1 x133 -1 x142 -1 x151 -1 x160 -1 x169 -1 x178 -1 x187 -1 x196 -1 x205 -1 x214 -1 x223 -1 x232 -1 x241 -1 x250 >= -10;
+1 x89 +1 x98 +1 x107 +1 x116 +1 x125 +1 x134 +1 x143 +1 x152 +1 x161 +1 x170 +1 x179 +1 x188 +1 x197 +1 x206 +1 x215 +1 x224 +1 x233 +1 x242 +1 x251 >= 9;
-1 x89 -1 x98 -1 x107 -1 x116 -1 x125 -1 x134 -1 x143 -1 x152 -1 x161 -1 x170 -1 x179 -1 x188 -1 x197 -1 x206 -1 x215 -1 x224 -1 x233 -1 x242 -1 x251 >= -10;
+1 x90 +1 x99 +1 x108 +1 x117 +1 x126 +1 x135 +1 x144 +1 x153 +1 x162 +1 x171 +1 x180 +1 x189 +1 x198 +1 x207 +1 x216 +1 x225 +1 x234 +1 x243 +1 x252 >= 9;
-1 x90 -1 x99 -1 x108 -1 x117 -1 x126 -1 x135 -1 x144 -1 x153 -1 x162 -1 x171 -1 x180 -1 x189 -1 x198 -1 x207 -1 x216 -1 x225 -1 x234 -1 x243 -1 x252 >= -10;
+1 x91 +1 x100 +1 x109 +1 x118 +1 x127 +1 x136 +1 x145 +1 x154 +1 x163 +1 x172 +1 x181 +1 x190 +1 x199 +1 x208 +1 x217 +1 x226 +1 x235 +1 x244 +1 x253 >= 9;
-1 x91 -1 x100 -1 x109 -1 x118 -1 x127 -1 x136 -1 x145 -1 x154 -1 x163 -1 x172 -1 x181 -1 x190 -1 x199 -1 x208 -1 x217 -1 x226 -1 x235 -1 x244 -1 x253 >= -10;
+1 x92 +1 x101 +1 x110 +1 x119 +1 x128 +1 x137 +1 x146 +1 x155 +1 x164 +1 x173 +1 x182 +1 x191 +1 x200 +1 x209 +1 x218 +1 x227 +1 x236 +1 x245 +1 x254 >= 9;
-1 x92 -1 x101 -1 x110 -1 x119 -1 x128 -1 x137 -1 x146 -1 x155 -1 x164 -1 x173 -1 x182 -1 x191 -1 x200 -1 x209 -1 x218 -1 x227 -1 x236 -1 x245 -1 x254 >= -10;
+1 x93 +1 x102 +1 x111 +1 x120 +1 x129 +1 x138 +1 x147 +1 x156 +1 x165 +1 x174 +1 x183 +1 x192 +1 x201 +1 x210 +1 x219 +1 x228 +1 x237 +1 x246 +1 x255 >= 9;
-1 x93 -1 x102 -1 x111 -1 x120 -1 x129 -1 x138 -1 x147 -1 x156 -1 x165 -1 x174 -1 x183 -1 x192 -1 x201 -1 x210 -1 x219 -1 x228 -1 x237 -1 x246 -1 x255 >= -10;
+1 x94 +1 x103 +1 x112 +1 x121 +1 x130 +1 x139 +1 x148 +1 x157 +1 x166 +1 x175 +1 x184 +1 x193 +1 x202 +1 x211 +1 x220 +1 x229 +1 x238 +1 x247 +1 x256 >= 9;
-1 x94 -1 x103 -1 x112 -1 x121 -1 x130 -1 x139 -1 x148 -1 x157 -1 x166 -1 x175 -1 x184 -1 x193 -1 x202 -1 x211 -1 x220 -1 x229 -1 x238 -1 x247 -1 x256 >= -10;
+1 x95 +1 x104 +1 x113 +1 x122 +1 x131 +1 x140 +1 x149 +1 x158 +1 x167 +1 x176 +1 x185 +1 x194 +1 x203 +1 x212 +1 x221 +1 x230 +1 x239 +1 x248 +1 x257 >= 9;
-1 x95 -1 x104 -1 x113 -1 x122 -1 x131 -1 x140 -1 x149 -1 x158 -1 x167 -1 x176 -1 x185 -1 x194 -1 x203 -1 x212 -1 x221 -1 x230 -1 x239 -1 x248 -1 x257 >= -10;
+1 x96 +1 x105 +1 x114 +1 x123 +1 x132 +1 x141 +1 x150 +1 x159 +1 x168 +1 x177 +1 x186 +1 x195 +1 x204 +1 x213 +1 x222 +1 x231 +1 x240 +1 x249 +1 x258 >= 9;
-1 x96 -1 x105 -1 x114 -1 x123 -1 x132 -1 x141 -1 x150 -1 x159 -1 x168 -1 x177 -1 x186 -1 x195 -1 x204 -1 x213 -1 x222 -1 x231 -1 x240 -1 x249 -1 x258 >= -10;
+1 x97 +1 x106 +1 x115 +1 x124 +1 x133 +1 x142 +1 x151 +1 x160 +1 x169 +1 x178 +1 x187 +1 x196 +1 x205 +1 x214 +1 x223 +1 x232 +1 x241 +1 x250 +1 x259 >= 9;
-1 x97 -1 x106 -1 x115 -1 x124 -1 x133 -1 x142 -1 x151 -1 x160 -1 x169 -1 x178 -1 x187 -1 x196 -1 x205 -1 x214 -1 x223 -1 x232 -1 x241 -1 x250 -1 x259 >= -10;
+1 x98 +1 x107 +1 x116 +1 x125 +1 x134 +1 x143 +1 x152 +1 x161 +1 x170 +1 x179 +1 x188 +1 x197 +1 x206 +1 x215 +1 x224 +1 x233 +1 x242 +1 x251 +1 x260 >= 9;
-1 x98 -1 x107 -1 x116 -1 x125 -1 x134 -1 x143 -1 x152 -1 x161 -1 x170 -1 x179 -1 x188 -1 x197 -1 x206 -1 x215 -1 x224 -1 x233 -1 x242 -1 x251 -1 x260 >= -10;
+1 x99 +1 x108 +1 x117 +1 x126 +1 x135 +1 x144 +1 x153 +1 x162 +1 x171 +1 x180 +1 x189 +1 x198 +1 x207 +1 x216 +1 x225 +1 x234 +1 x243 +1 x252 +1 x261 >= 9;
-1 x99 -1 x108 -1 x117 -1 x126 -1 x135 -1 x144 -1 x153 -1 x162 -1 x171 -1 x180 -1 x189 -1 x198 -1 x207 -1 x216 -1 x225 -1 x234 -1 x243 -1 x252 -1 x261 >= -10;
+1 x100 +1 x109 +1 x118 +1 x127 +1 x136 +1 x145 +1 x154 +1 x163 +1 x172 +1 x181 +1 x190 +1 x199 +1 x208 +1 x217 +1 x226 +1 x235 +1 x244 +1 x253 +1 x262 >= 9;
-1 x100 -1 x109 -1 x118 -1 x127 -1 x136 -1 x145 -1 x154 -1 x163 -1 x172 -1 x181 -1 x190 -1 x199 -1 x208 -1 x217 -1 x226 -1 x235 -1 x244 -1 x253 -1 x262 >= -10;
+1 x101 +1 x110 +1 x119 +1 x128 +1 x137 +1 x146 +1 x155 +1 x164 +1 x173 +1 x182 +1 x191 +1 x200 +1 x209 +1 x218 +1 x227 +1 x236 +1 x245 +1 x254 +1 x263 >= 9;
-1 x101 -1 x110 -1 x119 -1 x128 -1 x137 -1 x146 -1 x155 -1 x164 -1 x173 -1 x182 -1 x191 -1 x200 -1 x209 -1 x218 -1 x227 -1 x236 -1 x245 -1 x254 -1 x263 >= -10;
+1 x102 +1 x111 +1 x120 +1 x129 +1 x138 +1 x147 +1 x156 +1 x165 +1 x174 +1 x183 +1 x192 +1 x201 +1 x210 +1 x219 +1 x228 +1 x237 +1 x246 +1 x255 +1 x264 >= 9;
-1 x102 -1 x111 -1 x120 -1 x129 -1 x138 -1 x147 -1 x156 -1 x165 -1 x174 -1 x183 -1 x192 -1 x201 -1 x210 -1 x219 -1 x228 -1 x237 -1 x246 -1 x255 -1 x264 >= -10;
+1 x103 +1 x112 +1 x121 +1 x130 +1 x139 +1 x148 +1 x157 +1 x166 +1 x175 +1 x184 +1 x193 +1 x202 +1 x211 +1 x220 +1 x229 +1 x238 +1 x247 +1 x256 +1 x265 >= 9;
-1 x103 -1 x112 -1 x121 -1 x130 -1 x139 -1 x148 -1 x157 -1 x166 -1 x175 -1 x184 -1 x193 -1 x202 -1 x211 -1 x220 -1 x229 -1 x238 -1 x247 -1 x256 -1 x265 >= -10;
+1 x104 +1 x113 +1 x122 +1 x131 +1 x140 +1 x149 +1 x158 +1 x167 +1 x176 +1 x185 +1 x194 +1 x203 +1 x212 +1 x221 +1 x230 +1 x239 +1 x248 +1 x257 +1 x266 >= 9;
-1 x104 -1 x113 -1 x122 -1 x131 -1 x140 -1 x149 -1 x158 -1 x167 -1 x176 -1 x185 -1 x194 -1 x203 -1 x212 -1 x221 -1 x230 -1 x239 -1 x248 -1 x257 -1 x266 >= -10;
+1 x105 +1 x114 +1 x123 +1 x132 +1 x141 +1 x150 +1 x159 +1 x168 +1 x177 +1 x186 +1 x195 +1 x204 +1 x213 +1 x222 +1 x231 +1 x240 +1 x249 +1 x258 +1 x267 >= 9;
-1 x105 -1 x114 -1 x123 -1 x132 -1 x141 -1 x150 -1 x159 -1 x168 -1 x177 -1 x186 -1 x195 -1 x204 -1 x213 -1 x222 -1 x231 -1 x240 -1 x249 -1 x258 -1 x267 >= -10;
+1 x106 +1 x115 +1 x124 +1 x133 +1 x142 +1 x151 +1 x160 +1 x169 +1 x178 +1 x187 +1 x196 +1 x205 +1 x214 +1 x223 +1 x232 +1 x241 +1 x250 +1 x259 +1 x268 >= 9;
-1 x106 -1 x115 -1 x124 -1 x133 -1 x142 -1 x151 -1 x160 -1 x169 -1 x178 -1 x187 -1 x196 -1 x205 -1 x214 -1 x223 -1 x232 -1 x241 -1 x250 -1 x259 -1 x268 >= -10;
+1 x107 +1 x116 +1 x125 +1 x134 +1 x143 +1 x152 +1 x161 +1 x170 +1 x179 +1 x188 +1 x197 +1 x206 +1 x215 +1 x224 +1 x233 +1 x242 +1 x251 +1 x260 +1 x269 >= 9;
-1 x107 -1 x116 -1 x125 -1 x134 -1 x143 -1 x152 -1 x161 -1 x170 -1 x179 -1 x188 -1 x197 -1 x206 -1 x215 -1 x224 -1 x233 -1 x242 -1 x251 -1 x260 -1 x269 >= -10;
+1 x108 +1 x117 +1 x126 +1 x135 +1 x144 +1 x153 +1 x162 +1 x171 +1 x180 +1 x189 +1 x198 +1 x207 +1 x216 +1 x225 +1 x234 +1 x243 +1 x252 +1 x261 +1 x270 >= 9;
-1 x108 -1 x117 -1 x126 -1 x135 -1 x144 -1 x153 -1 x162 -1 x171 -1 x180 -1 x189 -1 x198 -1 x207 -1 x216 -1 x225 -1 x234 -1 x243 -1 x252 -1 x261 -1 x270 >= -10;
+1 x109 +1 x118 +1 x127 +1 x136 +1 x145 +1 x154 +1 x163 +1 x172 +1 x181 +1 x190 +1 x199 +1 x208 +1 x217 +1 x226 +1 x235 +1 x244 +1 x253 +1 x262 +1 x271 >= 9;
-1 x109 -1 x118 -1 x127 -1 x136 -1 x145 -1 x154 -1 x163 -1 x172 -1 x181 -1 x190 -1 x199 -1 x208 -1 x217 -1 x226 -1 x235 -1 x244 -1 x253 -1 x262 -1 x271 >= -10;
+1 x110 +1 x119 +1 x128 +1 x137 +1 x146 +1 x155 +1 x164 +1 x173 +1 x182 +1 x191 +1 x200 +1 x209 +1 x218 +1 x227 +1 x236 +1 x245 +1 x254 +1 x263 +1 x272 >= 9;
-1 x110 -1 x119 -1 x128 -1 x137 -1 x146 -1 x155 -1 x164 -1 x173 -1 x182 -1 x191 -1 x200 -1 x209 -1 x218 -1 x227 -1 x236 -1 x245 -1 x254 -1 x263 -1 x272 >= -10;
+1 x111 +1 x120 +1 x129 +1 x138 +1 x147 +1 x156 +1 x165 +1 x174 +1 x183 +1 x192 +1 x201 +1 x210 +1 x219 +1 x228 +1 x237 +1 x246 +1 x255 +1 x264 +1 x273 >= 9;
-1 x111 -1 x120 -1 x129 -1 x138 -1 x147 -1 x156 -1 x165 -1 x174 -1 x183 -1 x192 -1 x201 -1 x210 -1 x219 -1 x228 -1 x237 -1 x246 -1 x255 -1 x264 -1 x273 >= -10;
+1 x112 +1 x121 +1 x130 +1 x139 +1 x148 +1 x157 +1 x166 +1 x175 +1 x184 +1 x193 +1 x202 +1 x211 +1 x220 +1 x229 +1 x238 +1 x247 +1 x256 +1 x265 +1 x274 >= 9;
-1 x112 -1 x121 -1 x130 -1 x139 -1 x148 -1 x157 -1 x166 -1 x175 -1 x184 -1 x193 -1 x202 -1 x211 -1 x220 -1 x229 -1 x238 -1 x247 -1 x256 -1 x265 -1 x274 >= -10;
+1 x113 +1 x122 +1 x131 +1 x140 +1 x149 +1 x158 +1 x167 +1 x176 +1 x185 +1 x194 +1 x203 +1 x212 +1 x221 +1 x230 +1 x239 +1 x248 +1 x257 +1 x266 +1 x275 >= 9;
-1 x113 -1 x122 -1 x131 -1 x140 -1 x149 -1 x158 -1 x167 -1 x176 -1 x185 -1 x194 -1 x203 -1 x212 -1 x221 -1 x230 -1 x239 -1 x248 -1 x257 -1 x266 -1 x275 >= -10;
+1 x114 +1 x123 +1 x132 +1 x141 +1 x150 +1 x159 +1 x168 +1 x177 +1 x186 +1 x195 +1 x204 +1 x213 +1 x222 +1 x231 +1 x240 +1 x249 +1 x258 +1 x267 +1 x276 >= 9;
-1 x114 -1 x123 -1 x132 -1 x141 -1 x150 -1 x159 -1 x168 -1 x177 -1 x186 -1 x195 -1 x204 -1 x213 -1 x222 -1 x231 -1 x240 -1 x249 -1 x258 -1 x267 -1 x276 >= -10;
+1 x115 +1 x124 +1 x133 +1 x142 +1 x151 +1 x160 +1 x169 +1 x178 +1 x187 +1 x196 +1 x205 +1 x214 +1 x223 +1 x232 +1 x241 +1 x250 +1 x259 +1 x268 +1 x277 >= 9;
-1 x115 -1 x124 -1 x133 -1 x142 -1 x151 -1 x160 -1 x169 -1 x178 -1 x187 -1 x196 -1 x205 -1 x214 -1 x223 -1 x232 -1 x241 -1 x250 -1 x259 -1 x268 -1 x277 >= -10;
+1 x116 +1 x125 +1 x134 +1 x143 +1 x152 +1 x161 +1 x170 +1 x179 +1 x188 +1 x197 +1 x206 +1 x215 +1 x224 +1 x233 +1 x242 +1 x251 +1 x260 +1 x269 +1 x278 >= 9;
-1 x116 -1 x125 -1 x134 -1 x143 -1 x152 -1 x161 -1 x170 -1 x179 -1 x188 -1 x197 -1 x206 -1 x215 -1 x224 -1 x233 -1 x242 -1 x251 -1 x260 -1 x269 -1 x278 >= -10;
+1 x117 +1 x126 +1 x135 +1 x144 +1 x153 +1 x162 +1 x171 +1 x180 +1 x189 +1 x198 +1 x207 +1 x216 +1 x225 +1 x234 +1 x243 +1 x252 +1 x261 +1 x270 +1 x279 >= 9;
-1 x117 -1 x126 -1 x135 -1 x144 -1 x153 -1 x162 -1 x171 -1 x180 -1 x189 -1 x198 -1 x207 -1 x216 -1 x225 -1 x234 -1 x243 -1 x252 -1 x261 -1 x270 -1 x279 >= -10;
+1 x118 +1 x127 +1 x136 +1 x145 +1 x154 +1 x163 +1 x172 +1 x181 +1 x190 +1 x199 +1 x208 +1 x217 +1 x226 +1 x235 +1 x244 +1 x253 +1 x262 +1 x271 +1 x280 >= 9;
-1 x118 -1 x127 -1 x136 -1 x145 -1 x154 -1 x163 -1 x172 -1 x181 -1 x190 -1 x199 -1 x208 -1 x217 -1 x226 -1 x235 -1 x244 -1 x253 -1 x262 -1 x271 -1 x280 >= -10;
+1 x119 +1 x128 +1 x137 +1 x146 +1 x155 +1 x164 +1 x173 +1 x182 +1 x191 +1 x200 +1 x209 +1 x218 +1 x227 +1 x236 +1 x245 +1 x254 +1 x263 +1 x272 +1 x281 >= 9;
-1 x119 -1 x128 -1 x137 -1 x146 -1 x155 -1 x164 -1 x173 -1 x182 -1 x191 -1 x200 -1 x209 -1 x218 -1 x227 -1 x236 -1 x245 -1 x254 -1 x263 -1 x272 -1 x281 >= -10;
+1 x120 +1 x129 +1 x138 +1 x147 +1 x156 +1 x165 +1 x174 +1 x183 +1 x192 +1 x201 +1 x210 +1 x219 +1 x228 +1 x237 +1 x246 +1 x255 +1 x264 +1 x273 +1 x282 >= 9;
-1 x120 -1 x129 -1 x138 -1 x147 -1 x156 -1 x165 -1 x174 -1 x183 -1 x192 -1 x201 -1 x210 -1 x219 -1 x228 -1 x237 -1 x246 -1 x255 -1 x264 -1 x273 -1 x282 >= -10;
+1 x121 +1 x130 +1 x139 +1 x148 +1 x157 +1 x166 +1 x175 +1 x184 +1 x193 +1 x202 +1 x211 +1 x220 +1 x229 +1 x238 +1 x247 +1 x256 +1 x265 +1 x274 +1 x283 >= 9;
-1 x121 -1 x130 -1 x139 -1 x148 -1 x157 -1 x166 -1 x175 -1 x184 -1 x193 -1 x202 -1 x211 -1 x220 -1 x229 -1 x238 -1 x247 -1 x256 -1 x265 -1 x274 -1 x283 >= -10;
+1 x122 +1 x131 +1 x140 +1 x149 +1 x158 +1 x167 +1 x176 +1 x185 +1 x194 +1 x203 +1 x212 +1 x221 +1 x230 +1 x239 +1 x248 +1 x257 +1 x266 +1 x275 +1 x284 >= 9;
-1 x122 -1 x131 -1 x140 -1 x149 -1 x158 -1 x167 -1 x176 -1 x185 -1 x194 -1 x203 -1 x212 -1 x221 -1 x230 -1 x239 -1 x248 -1 x257 -1 x266 -1 x275 -1 x284 >= -10;
+1 x123 +1 x132 +1 x141 +1 x150 +1 x159 +1 x168 +1 x177 +1 x186 +1 x195 +1 x204 +1 x213 +1 x222 +1 x231 +1 x240 +1 x249 +1 x258 +1 x267 +1 x276 +1 x285 >= 9;
-1 x123 -1 x132 -1 x141 -1 x150 -1 x159 -1 x168 -1 x177 -1 x186 -1 x195 -1 x204 -1 x213 -1 x222 -1 x231 -1 x240 -1 x249 -1 x258 -1 x267 -1 x276 -1 x285 >= -10;
+1 x124 +1 x133 +1 x142 +1 x151 +1 x160 +1 x169 +1 x178 +1 x187 +1 x196 +1 x205 +1 x214 +1 x223 +1 x232 +1 x241 +1 x250 +1 x259 +1 x268 +1 x277 +1 x286 >= 9;
-1 x124 -1 x133 -1 x142 -1 x151 -1 x160 -1 x169 -1 x178 -1 x187 -1 x196 -1 x205 -1 x214 -1 x223 -1 x232 -1 x241 -1 x250 -1 x259 -1 x268 -1 x277 -1 x286 >= -10;
+1 x125 +1 x134 +1 x143 +1 x152 +1 x161 +1 x170 +1 x179 +1 x188 +1 x197 +1 x206 +1 x215 +1 x224 +1 x233 +1 x242 +1 x251 +1 x260 +1 x269 +1 x278 +1 x287 >= 9;
-1 x125 -1 x134 -1 x143 -1 x152 -1 x161 -1 x170 -1 x179 -1 x188 -1 x197 -1 x206 -1 x215 -1 x224 -1 x233 -1 x242 -1 x251 -1 x260 -1 x269 -1 x278 -1 x287 >= -10;
+1 x126 +1 x135 +1 x144 +1 x153 +1 x162 +1 x171 +1 x180 +1 x189 +1 x198 +1 x207 +1 x216 +1 x225 +1 x234 +1 x243 +1 x252 +1 x261 +1 x270 +1 x279 +1 x288 >= 9;
-1 x126 -1 x135 -1 x144 -1 x153 -1 x162 -1 x171 -1 x180 -1 x189 -1 x198 -1 x207 -1 x216 -1 x225 -1 x234 -1 x243 -1 x252 -1 x261 -1 x270 -1 x279 -1 x288 >= -10;
+1 x127 +1 x136 +1 x145 +1 x154 +1 x163 +1 x172 +1 x181 +1 x190 +1 x199 +1 x208 +1 x217 +1 x226 +1 x235 +1 x244 +1 x253 +1 x262 +1 x271 +1 x280 +1 x289 >= 9;
-1 x127 -1 x136 -1 x145 -1 x154 -1 x163 -1 x172 -1 x181 -1 x190 -1 x199 -1 x208 -1 x217 -1 x226 -1 x235 -1 x244 -1 x253 -1 x262 -1 x271 -1 x280 -1 x289 >= -10;
+1 x128 +1 x137 +1 x146 +1 x155 +1 x164 +1 x173 +1 x182 +1 x191 +1 x200 +1 x209 +1 x218 +1 x227 +1 x236 +1 x245 +1 x254 +1 x263 +1 x272 +1 x281 +1 x290 >= 9;
-1 x128 -1 x137 -1 x146 -1 x155 -1 x164 -1 x173 -1 x182 -1 x191 -1 x200 -1 x209 -1 x218 -1 x227 -1 x236 -1 x245 -1 x254 -1 x263 -1 x272 -1 x281 -1 x290 >= -10;
+1 x129 +1 x138 +1 x147 +1 x156 +1 x165 +1 x174 +1 x183 +1 x192 +1 x201 +1 x210 +1 x219 +1 x228 +1 x237 +1 x246 +1 x255 +1 x264 +1 x273 +1 x282 +1 x291 >= 9;
-1 x129 -1 x138 -1 x147 -1 x156 -1 x165 -1 x174 -1 x183 -1 x192 -1 x201 -1 x210 -1 x219 -1 x228 -1 x237 -1 x246 -1 x255 -1 x264 -1 x273 -1 x282 -1 x291 >= -10;
+1 x130 +1 x139 +1 x148 +1 x157 +1 x166 +1 x175 +1 x184 +1 x193 +1 x202 +1 x211 +1 x220 +1 x229 +1 x238 +1 x247 +1 x256 +1 x265 +1 x274 +1 x283 +1 x292 >= 9;
-1 x130 -1 x139 -1 x148 -1 x157 -1 x166 -1 x175 -1 x184 -1 x193 -1 x202 -1 x211 -1 x220 -1 x229 -1 x238 -1 x247 -1 x256 -1 x265 -1 x274 -1 x283 -1 x292 >= -10;
+1 x131 +1 x140 +1 x149 +1 x158 +1 x167 +1 x176 +1 x185 +1 x194 +1 x203 +1 x212 +1 x221 +1 x230 +1 x239 +1 x248 +1 x257 +1 x266 +1 x275 +1 x284 +1 x293 >= 9;
-1 x131 -1 x140 -1 x149 -1 x158 -1 x167 -1 x176 -1 x185 -1 x194 -1 x203 -1 x212 -1 x221 -1 x230 -1 x239 -1 x248 -1 x257 -1 x266 -1 x275 -1 x284 -1 x293 >= -10;
+1 x132 +1 x141 +1 x150 +1 x159 +1 x168 +1 x177 +1 x186 +1 x195 +1 x204 +1 x213 +1 x222 +1 x231 +1 x240 +1 x249 +1 x258 +1 x267 +1 x276 +1 x285 +1 x294 >= 9;
-1 x132 -1 x141 -1 x150 -1 x159 -1 x168 -1 x177 -1 x186 -1 x195 -1 x204 -1 x213 -1 x222 -1 x231 -1 x240 -1 x249 -1 x258 -1 x267 -1 x276 -1 x285 -1 x294 >= -10;
+1 x133 +1 x142 +1 x151 +1 x160 +1 x169 +1 x178 +1 x187 +1 x196 +1 x205 +1 x214 +1 x223 +1 x232 +1 x241 +1 x250 +1 x259 +1 x268 +1 x277 +1 x286 +1 x295 >= 9;
-1 x133 -1 x142 -1 x151 -1 x160 -1 x169 -1 x178 -1 x187 -1 x196 -1 x205 -1 x214 -1 x223 -1 x232 -1 x241 -1 x250 -1 x259 -1 x268 -1 x277 -1 x286 -1 x295 >= -10;
+1 x134 +1 x143 +1 x152 +1 x161 +1 x170 +1 x179 +1 x188 +1 x197 +1 x206 +1 x215 +1 x224 +1 x233 +1 x242 +1 x251 +1 x260 +1 x269 +1 x278 +1 x287 +1 x296 >= 9;
-1 x134 -1 x143 -1 x152 -1 x161 -1 x170 -1 x179 -1 x188 -1 x197 -1 x206 -1 x215 -1 x224 -1 x233 -1 x242 -1 x251 -1 x260 -1 x269 -1 x278 -1 x287 -1 x296 >= -10;
+1 x135 +1 x144 +1 x153 +1 x162 +1 x171 +1 x180 +1 x189 +1 x198 +1 x207 +1 x216 +1 x225 +1 x234 +1 x243 +1 x252 +1 x261 +1 x270 +1 x279 +1 x288 +1 x297 >= 9;
-1 x135 -1 x144 -1 x153 -1 x162 -1 x171 -1 x180 -1 x189 -1 x198 -1 x207 -1 x216 -1 x225 -1 x234 -1 x243 -1 x252 -1 x261 -1 x270 -1 x279 -1 x288 -1 x297 >= -10;
+1 x136 +1 x145 +1 x154 +1 x163 +1 x172 +1 x181 +1 x190 +1 x199 +1 x208 +1 x217 +1 x226 +1 x235 +1 x244 +1 x253 +1 x262 +1 x271 +1 x280 +1 x289 +1 x298 >= 9;
-1 x136 -1 x145 -1 x154 -1 x163 -1 x172 -1 x181 -1 x190 -1 x199 -1 x208 -1 x217 -1 x226 -1 x235 -1 x244 -1 x253 -1 x262 -1 x271 -1 x280 -1 x289 -1 x298 >= -10;
+1 x137 +1 x146 +1 x155 +1 x164 +1 x173 +1 x182 +1 x191 +1 x200 +1 x209 +1 x218 +1 x227 +1 x236 +1 x245 +1 x254 +1 x263 +1 x272 +1 x281 +1 x290 +1 x299 >= 9;
-1 x137 -1 x146 -1 x155 -1 x164 -1 x173 -1 x182 -1 x191 -1 x200 -1 x209 -1 x218 -1 x227 -1 x236 -1 x245 -1 x254 -1 x263 -1 x272 -1 x281 -1 x290 -1 x299 >= -10;
+1 x138 +1 x147 +1 x156 +1 x165 +1 x174 +1 x183 +1 x192 +1 x201 +1 x210 +1 x219 +1 x228 +1 x237 +1 x246 +1 x255 +1 x264 +1 x273 +1 x282 +1 x291 +1 x300 >= 9;
-1 x138 -1 x147 -1 x156 -1 x165 -1 x174 -1 x183 -1 x192 -1 x201 -1 x210 -1 x219 -1 x228 -1 x237 -1 x246 -1 x255 -1 x264 -1 x273 -1 x282 -1 x291 -1 x300 >= -10;
+1 x139 +1 x148 +1 x157 +1 x166 +1 x175 +1 x184 +1 x193 +1 x202 +1 x211 +1 x220 +1 x229 +1 x238 +1 x247 +1 x256 +1 x265 +1 x274 +1 x283 +1 x292 +1 x301 >= 9;
-1 x139 -1 x148 -1 x157 -1 x166 -1 x175 -1 x184 -1 x193 -1 x202 -1 x211 -1 x220 -1 x229 -1 x238 -1 x247 -1 x256 -1 x265 -1 x274 -1 x283 -1 x292 -1 x301 >= -10;
+1 x140 +1 x149 +1 x158 +1 x167 +1 x176 +1 x185 +1 x194 +1 x203 +1 x212 +1 x221 +1 x230 +1 x239 +1 x248 +1 x257 +1 x266 +1 x275 +1 x284 +1 x293 +1 x302 >= 9;
-1 x140 -1 x149 -1 x158 -1 x167 -1 x176 -1 x185 -1 x194 -1 x203 -1 x212 -1 x221 -1 x230 -1 x239 -1 x248 -1 x257 -1 x266 -1 x275 -1 x284 -1 x293 -1 x302 >= -10;
+1 x141 +1 x150 +1 x159 +1 x168 +1 x177 +1 x186 +1 x195 +1 x204 +1 x213 +1 x222 +1 x231 +1 x240 +1 x249 +1 x258 +1 x267 +1 x276 +1 x285 +1 x294 +1 x303 >= 9;
-1 x141 -1 x150 -1 x159 -1 x168 -1 x177 -1 x186 -1 x195 -1 x204 -1 x213 -1 x222 -1 x231 -1 x240 -1 x249 -1 x258 -1 x267 -1 x276 -1 x285 -1 x294 -1 x303 >= -10;
+1 x142 +1 x151 +1 x160 +1 x169 +1 x178 +1 x187 +1 x196 +1 x205 +1 x214 +1 x223 +1 x232 +1 x241 +1 x250 +1 x259 +1 x268 +1 x277 +1 x286 +1 x295 +1 x304 >= 9;
-1 x142 -1 x151 -1 x160 -1 x169 -1 x178 -1 x187 -1 x196 -1 x205 -1 x214 -1 x223 -1 x232 -1 x241 -1 x250 -1 x259 -1 x268 -1 x277 -1 x286 -1 x295 -1 x304 >= -10;
+1 x143 +1 x152 +1 x161 +1 x170 +1 x179 +1 x188 +1 x197 +1 x206 +1 x215 +1 x224 +1 x233 +1 x242 +1 x251 +1 x260 +1 x269 +1 x278 +1 x287 +1 x296 +1 x305 >= 9;
-1 x143 -1 x152 -1 x161 -1 x170 -1 x179 -1 x188 -1 x197 -1 x206 -1 x215 -1 x224 -1 x233 -1 x242 -1 x251 -1 x260 -1 x269 -1 x278 -1 x287 -1 x296 -1 x305 >= -10;
+1 x144 +1 x153 +1 x162 +1 x171 +1 x180 +1 x189 +1 x198 +1 x207 +1 x216 +1 x225 +1 x234 +1 x243 +1 x252 +1 x261 +1 x270 +1 x279 +1 x288 +1 x297 +1 x306 >= 9;
-1 x144 -1 x153 -1 x162 -1 x171 -1 x180 -1 x189 -1 x198 -1 x207 -1 x216 -1 x225 -1 x234 -1 x243 -1 x252 -1 x261 -1 x270 -1 x279 -1 x288 -1 x297 -1 x306 >= -10;
+1 x145 +1 x154 +1 x163 +1 x172 +1 x181 +1 x190 +1 x199 +1 x208 +1 x217 +1 x226 +1 x235 +1 x244 +1 x253 +1 x262 +1 x271 +1 x280 +1 x289 +1 x298 +1 x307 >= 9;
-1 x145 -1 x154 -1 x163 -1 x172 -1 x181 -1 x190 -1 x199 -1 x208 -1 x217 -1 x226 -1 x235 -1 x244 -1 x253 -1 x262 -1 x271 -1 x280 -1 x289 -1 x298 -1 x307 >= -10;
+1 x146 +1 x155 +1 x164 +1 x173 +1 x182 +1 x191 +1 x200 +1 x209 +1 x218 +1 x227 +1 x236 +1 x245 +1 x254 +1 x263 +1 x272 +1 x281 +1 x290 +1 x299 +1 x308 >= 9;
-1 x146 -1 x155 -1 x164 -1 x173 -1 x182 -1 x191 -1 x200 -1 x209 -1 x218 -1 x227 -1 x236 -1 x245 -1 x254 -1 x263 -1 x272 -1 x281 -1 x290 -1 x299 -1 x308 >= -10;
+1 x147 +1 x156 +1 x165 +1 x174 +1 x183 +1 x192 +1 x201 +1 x210 +1 x219 +1 x228 +1 x237 +1 x246 +1 x255 +1 x264 +1 x273 +1 x282 +1 x291 +1 x300 +1 x309 >= 9;
-1 x147 -1 x156 -1 x165 -1 x174 -1 x183 -1 x192 -1 x201 -1 x210 -1 x219 -1 x228 -1 x237 -1 x246 -1 x255 -1 x264 -1 x273 -1 x282 -1 x291 -1 x300 -1 x309 >= -10;
+1 x148 +1 x157 +1 x166 +1 x175 +1 x184 +1 x193 +1 x202 +1 x211 +1 x220 +1 x229 +1 x238 +1 x247 +1 x256 +1 x265 +1 x274 +1 x283 +1 x292 +1 x301 +1 x310 >= 9;
-1 x148 -1 x157 -1 x166 -1 x175 -1 x184 -1 x193 -1 x202 -1 x211 -1 x220 -1 x229 -1 x238 -1 x247 -1 x256 -1 x265 -1 x274 -1 x283 -1 x292 -1 x301 -1 x310 >= -10;
+1 x149 +1 x158 +1 x167 +1 x176 +1 x185 +1 x194 +1 x203 +1 x212 +1 x221 +1 x230 +1 x239 +1 x248 +1 x257 +1 x266 +1 x275 +1 x284 +1 x293 +1 x302 +1 x311 >= 9;
-1 x149 -1 x158 -1 x167 -1 x176 -1 x185 -1 x194 -1 x203 -1 x212 -1 x221 -1 x230 -1 x239 -1 x248 -1 x257 -1 x266 -1 x275 -1 x284 -1 x293 -1 x302 -1 x311 >= -10;
+1 x150 +1 x159 +1 x168 +1 x177 +1 x186 +1 x195 +1 x204 +1 x213 +1 x222 +1 x231 +1 x240 +1 x249 +1 x258 +1 x267 +1 x276 +1 x285 +1 x294 +1 x303 +1 x312 >= 9;
-1 x150 -1 x159 -1 x168 -1 x177 -1 x186 -1 x195 -1 x204 -1 x213 -1 x222 -1 x231 -1 x240 -1 x249 -1 x258 -1 x267 -1 x276 -1 x285 -1 x294 -1 x303 -1 x312 >= -10;
+1 x151 +1 x160 +1 x169 +1 x178 +1 x187 +1 x196 +1 x205 +1 x214 +1 x223 +1 x232 +1 x241 +1 x250 +1 x259 +1 x268 +1 x277 +1 x286 +1 x295 +1 x304 +1 x313 >= 9;
-1 x151 -1 x160 -1 x169 -1 x178 -1 x187 -1 x196 -1 x205 -1 x214 -1 x223 -1 x232 -1 x241 -1 x250 -1 x259 -1 x268 -1 x277 -1 x286 -1 x295 -1 x304 -1 x313 >= -10;
+1 x152 +1 x161 +1 x170 +1 x179 +1 x188 +1 x197 +1 x206 +1 x215 +1 x224 +1 x233 +1 x242 +1 x251 +1 x260 +1 x269 +1 x278 +1 x287 +1 x296 +1 x305 +1 x314 >= 9;
-1 x152 -1 x161 -1 x170 -1 x179 -1 x188 -1 x197 -1 x206 -1 x215 -1 x224 -1 x233 -1 x242 -1 x251 -1 x260 -1 x269 -1 x278 -1 x287 -1 x296 -1 x305 -1 x314 >= -10;
+1 x153 +1 x162 +1 x171 +1 x180 +1 x189 +1 x198 +1 x207 +1 x216 +1 x225 +1 x234 +1 x243 +1 x252 +1 x261 +1 x270 +1 x279 +1 x288 +1 x297 +1 x306 +1 x315 >= 9;
-1 x153 -1 x162 -1 x171 -1 x180 -1 x189 -1 x198 -1 x207 -1 x216 -1 x225 -1 x234 -1 x243 -1 x252 -1 x261 -1 x270 -1 x279 -1 x288 -1 x297 -1 x306 -1 x315 >= -10;
+1 x154 +1 x163 +1 x172 +1 x181 +1 x190 +1 x199 +1 x208 +1 x217 +1 x226 +1 x235 +1 x244 +1 x253 +1 x262 +1 x271 +1 x280 +1 x289 +1 x298 +1 x307 +1 x316 >= 9;
-1 x154 -1 x163 -1 x172 -1 x181 -1 x190 -1 x199 -1 x208 -1 x217 -1 x226 -1 x235 -1 x244 -1 x253 -1 x262 -1 x271 -1 x280 -1 x289 -1 x298 -1 x307 -1 x316 >= -10;
+1 x155 +1 x164 +1 x173 +1 x182 +1 x191 +1 x200 +1 x209 +1 x218 +1 x227 +1 x236 +1 x245 +1 x254 +1 x263 +1 x272 +1 x281 +1 x290 +1 x299 +1 x308 +1 x317 >= 9;
-1 x155 -1 x164 -1 x173 -1 x182 -1 x191 -1 x200 -1 x209 -1 x218 -1 x227 -1 x236 -1 x245 -1 x254 -1 x263 -1 x272 -1 x281 -1 x290 -1 x299 -1 x308 -1 x317 >= -10;
+1 x156 +1 x165 +1 x174 +1 x183 +1 x192 +1 x201 +1 x210 +1 x219 +1 x228 +1 x237 +1 x246 +1 x255 +1 x264 +1 x273 +1 x282 +1 x291 +1 x300 +1 x309 +1 x318 >= 9;
-1 x156 -1 x165 -1 x174 -1 x183 -1 x192 -1 x201 -1 x210 -1 x219 -1 x228 -1 x237 -1 x246 -1 x255 -1 x264 -1 x273 -1 x282 -1 x291 -1 x300 -1 x309 -1 x318 >= -10;
+1 x157 +1 x166 +1 x175 +1 x184 +1 x193 +1 x202 +1 x211 +1 x220 +1 x229 +1 x238 +1 x247 +1 x256 +1 x265 +1 x274 +1 x283 +1 x292 +1 x301 +1 x310 +1 x319 >= 9;
-1 x157 -1 x166 -1 x175 -1 x184 -1 x193 -1 x202 -1 x211 -1 x220 -1 x229 -1 x238 -1 x247 -1 x256 -1 x265 -1 x274 -1 x283 -1 x292 -1 x301 -1 x310 -1 x319 >= -10;
+1 x158 +1 x167 +1 x176 +1 x185 +1 x194 +1 x203 +1 x212 +1 x221 +1 x230 +1 x239 +1 x248 +1 x257 +1 x266 +1 x275 +1 x284 +1 x293 +1 x302 +1 x311 +1 x320 >= 9;
-1 x158 -1 x167 -1 x176 -1 x185 -1 x194 -1 x203 -1 x212 -1 x221 -1 x230 -1 x239 -1 x248 -1 x257 -1 x266 -1 x275 -1 x284 -1 x293 -1 x302 -1 x311 -1 x320 >= -10;
+1 x159 +1 x168 +1 x177 +1 x186 +1 x195 +1 x204 +1 x213 +1 x222 +1 x231 +1 x240 +1 x249 +1 x258 +1 x267 +1 x276 +1 x285 +1 x294 +1 x303 +1 x312 +1 x321 >= 9;
-1 x159 -1 x168 -1 x177 -1 x186 -1 x195 -1 x204 -1 x213 -1 x222 -1 x231 -1 x240 -1 x249 -1 x258 -1 x267 -1 x276 -1 x285 -1 x294 -1 x303 -1 x312 -1 x321 >= -10;
+1 x160 +1 x169 +1 x178 +1 x187 +1 x196 +1 x205 +1 x214 +1 x223 +1 x232 +1 x241 +1 x250 +1 x259 +1 x268 +1 x277 +1 x286 +1 x295 +1 x304 +1 x313 +1 x322 >= 9;
-1 x160 -1 x169 -1 x178 -1 x187 -1 x196 -1 x205 -1 x214 -1 x223 -1 x232 -1 x241 -1 x250 -1 x259 -1 x268 -1 x277 -1 x286 -1 x295 -1 x304 -1 x313 -1 x322 >= -10;
+1 x161 +1 x170 +1 x179 +1 x188 +1 x197 +1 x206 +1 x215 +1 x224 +1 x233 +1 x242 +1 x251 +1 x260 +1 x269 +1 x278 +1 x287 +1 x296 +1 x305 +1 x314 +1 x323 >= 9;
-1 x161 -1 x170 -1 x179 -1 x188 -1 x197 -1 x206 -1 x215 -1 x224 -1 x233 -1 x242 -1 x251 -1 x260 -1 x269 -1 x278 -1 x287 -1 x296 -1 x305 -1 x314 -1 x323 >= -10;
+1 x162 +1 x171 +1 x180 +1 x189 +1 x198 +1 x207 +1 x216 +1 x225 +1 x234 +1 x243 +1 x252 +1 x261 +1 x270 +1 x279 +1 x288 +1 x297 +1 x306 +1 x315 +1 x324 >= 9;
-1 x162 -1 x171 -1 x180 -1 x189 -1 x198 -1 x207 -1 x216 -1 x225 -1 x234 -1 x243 -1 x252 -1 x261 -1 x270 -1 x279 -1 x288 -1 x297 -1 x306 -1 x315 -1 x324 >= -10;
+1 x163 +1 x172 +1 x181 +1 x190 +1 x199 +1 x208 +1 x217 +1 x226 +1 x235 +1 x244 +1 x253 +1 x262 +1 x271 +1 x280 +1 x289 +1 x298 +1 x307 +1 x316 +1 x325 >= 9;
-1 x163 -1 x172 -1 x181 -1 x190 -1 x199 -1 x208 -1 x217 -1 x226 -1 x235 -1 x244 -1 x253 -1 x262 -1 x271 -1 x280 -1 x289 -1 x298 -1 x307 -1 x316 -1 x325 >= -10;
+1 x164 +1 x173 +1 x182 +1 x191 +1 x200 +1 x209 +1 x218 +1 x227 +1 x236 +1 x245 +1 x254 +1 x263 +1 x272 +1 x281 +1 x290 +1 x299 +1 x308 +1 x317 +1 x326 >= 9;
-1 x164 -1 x173 -1 x182 -1 x191 -1 x200 -1 x209 -1 x218 -1 x227 -1 x236 -1 x245 -1 x254 -1 x263 -1 x272 -1 x281 -1 x290 -1 x299 -1 x308 -1 x317 -1 x326 >= -10;
+1 x165 +1 x174 +1 x183 +1 x192 +1 x201 +1 x210 +1 x219 +1 x228 +1 x237 +1 x246 +1 x255 +1 x264 +1 x273 +1 x282 +1 x291 +1 x300 +1 x309 +1 x318 +1 x327 >= 9;
-1 x165 -1 x174 -1 x183 -1 x192 -1 x201 -1 x210 -1 x219 -1 x228 -1 x237 -1 x246 -1 x255 -1 x264 -1 x273 -1 x282 -1 x291 -1 x300 -1 x309 -1 x318 -1 x327 >= -10;
+1 x166 +1 x175 +1 x184 +1 x193 +1 x202 +1 x211 +1 x220 +1 x229 +1 x238 +1 x247 +1 x256 +1 x265 +1 x274 +1 x283 +1 x292 +1 x301 +1 x310 +1 x319 +1 x328 >= 9;
-1 x166 -1 x175 -1 x184 -1 x193 -1 x202 -1 x211 -1 x220 -1 x229 -1 x238 -1 x247 -1 x256 -1 x265 -1 x274 -1 x283 -1 x292 -1 x301 -1 x310 -1 x319 -1 x328 >= -10;
+1 x167 +1 x176 +1 x185 +1 x194 +1 x203 +1 x212 +1 x221 +1 x230 +1 x239 +1 x248 +1 x257 +1 x266 +1 x275 +1 x284 +1 x293 +1 x302 +1 x311 +1 x320 +1 x329 >= 9;
-1 x167 -1 x176 -1 x185 -1 x194 -1 x203 -1 x212 -1 x221 -1 x230 -1 x239 -1 x248 -1 x257 -1 x266 -1 x275 -1 x284 -1 x293 -1 x302 -1 x311 -1 x320 -1 x329 >= -10;
+1 x168 +1 x177 +1 x186 +1 x195 +1 x204 +1 x213 +1 x222 +1 x231 +1 x240 +1 x249 +1 x258 +1 x267 +1 x276 +1 x285 +1 x294 +1 x303 +1 x312 +1 x321 +1 x330 >= 9;
-1 x168 -1 x177 -1 x186 -1 x195 -1 x204 -1 x213 -1 x222 -1 x231 -1 x240 -1 x249 -1 x258 -1 x267 -1 x276 -1 x285 -1 x294 -1 x303 -1 x312 -1 x321 -1 x330 >= -10;
+1 x169 +1 x178 +1 x187 +1 x196 +1 x205 +1 x214 +1 x223 +1 x232 +1 x241 +1 x250 +1 x259 +1 x268 +1 x277 +1 x286 +1 x295 +1 x304 +1 x313 +1 x322 +1 x331 >= 9;
-1 x169 -1 x178 -1 x187 -1 x196 -1 x205 -1 x214 -1 x223 -1 x232 -1 x241 -1 x250 -1 x259 -1 x268 -1 x277 -1 x286 -1 x295 -1 x304 -1 x313 -1 x322 -1 x331 >= -10;
+1 x170 +1 x179 +1 x188 +1 x197 +1 x206 +1 x215 +1 x224 +1 x233 +1 x242 +1 x251 +1 x260 +1 x269 +1 x278 +1 x287 +1 x296 +1 x305 +1 x314 +1 x323 +1 x332 >= 9;
-1 x170 -1 x179 -1 x188 -1 x197 -1 x206 -1 x215 -1 x224 -1 x233 -1 x242 -1 x251 -1 x260 -1 x269 -1 x278 -1 x287 -1 x296 -1 x305 -1 x314 -1 x323 -1 x332 >= -10;
+1 x171 +1 x180 +1 x189 +1 x198 +1 x207 +1 x216 +1 x225 +1 x234 +1 x243 +1 x252 +1 x261 +1 x270 +1 x279 +1 x288 +1 x297 +1 x306 +1 x315 +1 x324 +1 x333 >= 9;
-1 x171 -1 x180 -1 x189 -1 x198 -1 x207 -1 x216 -1 x225 -1 x234 -1 x243 -1 x252 -1 x261 -1 x270 -1 x279 -1 x288 -1 x297 -1 x306 -1 x315 -1 x324 -1 x333 >= -10;
+1 x172 +1 x181 +1 x190 +1 x199 +1 x208 +1 x217 +1 x226 +1 x235 +1 x244 +1 x253 +1 x262 +1 x271 +1 x280 +1 x289 +1 x298 +1 x307 +1 x316 +1 x325 +1 x334 >= 9;
-1 x172 -1 x181 -1 x190 -1 x199 -1 x208 -1 x217 -1 x226 -1 x235 -1 x244 -1 x253 -1 x262 -1 x271 -1 x280 -1 x289 -1 x298 -1 x307 -1 x316 -1 x325 -1 x334 >= -10;
+1 x173 +1 x182 +1 x191 +1 x200 +1 x209 +1 x218 +1 x227 +1 x236 +1 x245 +1 x254 +1 x263 +1 x272 +1 x281 +1 x290 +1 x299 +1 x308 +1 x317 +1 x326 +1 x335 >= 9;
-1 x173 -1 x182 -1 x191 -1 x200 -1 x209 -1 x218 -1 x227 -1 x236 -1 x245 -1 x254 -1 x263 -1 x272 -1 x281 -1 x290 -1 x299 -1 x308 -1 x317 -1 x326 -1 x335 >= -10;
+1 x174 +1 x183 +1 x192 +1 x201 +1 x210 +1 x219 +1 x228 +1 x237 +1 x246 +1 x255 +1 x264 +1 x273 +1 x282 +1 x291 +1 x300 +1 x309 +1 x318 +1 x327 +1 x336 >= 9;
-1 x174 -1 x183 -1 x192 -1 x201 -1 x210 -1 x219 -1 x228 -1 x237 -1 x246 -1 x255 -1 x264 -1 x273 -1 x282 -1 x291 -1 x300 -1 x309 -1 x318 -1 x327 -1 x336 >= -10;
+1 x175 +1 x184 +1 x193 +1 x202 +1 x211 +1 x220 +1 x229 +1 x238 +1 x247 +1 x256 +1 x265 +1 x274 +1 x283 +1 x292 +1 x301 +1 x310 +1 x319 +1 x328 +1 x337 >= 9;
-1 x175 -1 x184 -1 x193 -1 x202 -1 x211 -1 x220 -1 x229 -1 x238 -1 x247 -1 x256 -1 x265 -1 x274 -1 x283 -1 x292 -1 x301 -1 x310 -1 x319 -1 x328 -1 x337 >= -10;
+1 x176 +1 x185 +1 x194 +1 x203 +1 x212 +1 x221 +1 x230 +1 x239 +1 x248 +1 x257 +1 x266 +1 x275 +1 x284 +1 x293 +1 x302 +1 x311 +1 x320 +1 x329 +1 x338 >= 9;
-1 x176 -1 x185 -1 x194 -1 x203 -1 x212 -1 x221 -1 x230 -1 x239 -1 x248 -1 x257 -1 x266 -1 x275 -1 x284 -1 x293 -1 x302 -1 x311 -1 x320 -1 x329 -1 x338 >= -10;
+1 x177 +1 x186 +1 x195 +1 x204 +1 x213 +1 x222 +1 x231 +1 x240 +1 x249 +1 x258 +1 x267 +1 x276 +1 x285 +1 x294 +1 x303 +1 x312 +1 x321 +1 x330 +1 x339 >= 9;
-1 x177 -1 x186 -1 x195 -1 x204 -1 x213 -1 x222 -1 x231 -1 x240 -1 x249 -1 x258 -1 x267 -1 x276 -1 x285 -1 x294 -1 x303 -1 x312 -1 x321 -1 x330 -1 x339 >= -10;
+1 x178 +1 x187 +1 x196 +1 x205 +1 x214 +1 x223 +1 x232 +1 x241 +1 x250 +1 x259 +1 x268 +1 x277 +1 x286 +1 x295 +1 x304 +1 x313 +1 x322 +1 x331 +1 x340 >= 9;
-1 x178 -1 x187 -1 x196 -1 x205 -1 x214 -1 x223 -1 x232 -1 x241 -1 x250 -1 x259 -1 x268 -1 x277 -1 x286 -1 x295 -1 x304 -1 x313 -1 x322 -1 x331 -1 x340 >= -10;
+1 x179 +1 x188 +1 x197 +1 x206 +1 x215 +1 x224 +1 x233 +1 x242 +1 x251 +1 x260 +1 x269 +1 x278 +1 x287 +1 x296 +1 x305 +1 x314 +1 x323 +1 x332 +1 x341 >= 9;
-1 x179 -1 x188 -1 x197 -1 x206 -1 x215 -1 x224 -1 x233 -1 x242 -1 x251 -1 x260 -1 x269 -1 x278 -1 x287 -1 x296 -1 x305 -1 x314 -1 x323 -1 x332 -1 x341 >= -10;
+1 x180 +1 x189 +1 x198 +1 x207 +1 x216 +1 x225 +1 x234 +1 x243 +1 x252 +1 x261 +1 x270 +1 x279 +1 x288 +1 x297 +1 x306 +1 x315 +1 x324 +1 x333 +1 x342 >= 9;
-1 x180 -1 x189 -1 x198 -1 x207 -1 x216 -1 x225 -1 x234 -1 x243 -1 x252 -1 x261 -1 x270 -1 x279 -1 x288 -1 x297 -1 x306 -1 x315 -1 x324 -1 x333 -1 x342 >= -10;
+1 x181 +1 x190 +1 x199 +1 x208 +1 x217 +1 x226 +1 x235 +1 x244 +1 x253 +1 x262 +1 x271 +1 x280 +1 x289 +1 x298 +1 x307 +1 x316 +1 x325 +1 x334 +1 x343 >= 9;
-1 x181 -1 x190 -1 x199 -1 x208 -1 x217 -1 x226 -1 x235 -1 x244 -1 x253 -1 x262 -1 x271 -1 x280 -1 x289 -1 x298 -1 x307 -1 x316 -1 x325 -1 x334 -1 x343 >= -10;
+1 x182 +1 x191 +1 x200 +1 x209 +1 x218 +1 x227 +1 x236 +1 x245 +1 x254 +1 x263 +1 x272 +1 x281 +1 x290 +1 x299 +1 x308 +1 x317 +1 x326 +1 x335 +1 x344 >= 9;
-1 x182 -1 x191 -1 x200 -1 x209 -1 x218 -1 x227 -1 x236 -1 x245 -1 x254 -1 x263 -1 x272 -1 x281 -1 x290 -1 x299 -1 x308 -1 x317 -1 x326 -1 x335 -1 x344 >= -10;
+1 x1 +1 x11 +1 x21 +1 x31 +1 x41 +1 x51 +1 x61 +1 x71 +1 x81 +1 x91 +1 x101 +1 x111 +1 x121 +1 x131 +1 x141 +1 x151 +1 x161 +1 x171 +1 x181 >= 9;
-1 x1 -1 x11 -1 x21 -1 x31 -1 x41 -1 x51 -1 x61 -1 x71 -1 x81 -1 x91 -1 x101 -1 x111 -1 x121 -1 x131 -1 x141 -1 x151 -1 x161 -1 x171 -1 x181 >= -10;
+1 x2 +1 x12 +1 x22 +1 x32 +1 x42 +1 x52 +1 x62 +1 x72 +1 x82 +1 x92 +1 x102 +1 x112 +1 x122 +1 x132 +1 x142 +1 x152 +1 x162 +1 x172 +1 x182 >= 9;
-1 x2 -1 x12 -1 x22 -1 x32 -1 x42 -1 x52 -1 x62 -1 x72 -1 x82 -1 x92 -1 x102 -1 x112 -1 x122 -1 x132 -1 x142 -1 x152 -1 x162 -1 x172 -1 x182 >= -10;
+1 x3 +1 x13 +1 x23 +1 x33 +1 x43 +1 x53 +1 x63 +1 x73 +1 x83 +1 x93 +1 x103 +1 x113 +1 x123 +1 x133 +1 x143 +1 x153 +1 x163 +1 x173 +1 x183 >= 9;
-1 x3 -1 x13 -1 x23 -1 x33 -1 x43 -1 x53 -1 x63 -1 x73 -1 x83 -1 x93 -1 x103 -1 x113 -1 x123 -1 x133 -1 x143 -1 x153 -1 x163 -1 x173 -1 x183 >= -10;
+1 x4 +1 x14 +1 x24 +1 x34 +1 x44 +1 x54 +1 x64 +1 x74 +1 x84 +1 x94 +1 x104 +1 x114 +1 x124 +1 x134 +1 x144 +1 x154 +1 x164 +1 x174 +1 x184 >= 9;
-1 x4 -1 x14 -1 x24 -1 x34 -1 x44 -1 x54 -1 x64 -1 x74 -1 x84 -1 x94 -1 x104 -1 x114 -1 x124 -1 x134 -1 x144 -1 x154 -1 x164 -1 x174 -1 x184 >= -10;
+1 x5 +1 x15 +1 x25 +1 x35 +1 x45 +1 x55 +1 x65 +1 x75 +1 x85 +1 x95 +1 x105 +1 x115 +1 x125 +1 x135 +1 x145 +1 x155 +1 x165 +1 x175 +1 x185 >= 9;
-1 x5 -1 x15 -1 x25 -1 x35 -1 x45 -1 x55 -1 x65 -1 x75 -1 x85 -1 x95 -1 x105 -1 x115 -1 x125 -1 x135 -1 x145 -1 x155 -1 x165 -1 x175 -1 x185 >= -10;
+1 x6 +1 x16 +1 x26 +1 x36 +1 x46 +1 x56 +1 x66 +1 x76 +1 x86 +1 x96 +1 x106 +1 x116 +1 x126 +1 x136 +1 x146 +1 x156 +1 x166 +1 x176 +1 x186 >= 9;
-1 x6 -1 x16 -1 x26 -1 x36 -1 x46 -1 x56 -1 x66 -1 x76 -1 x86 -1 x96 -1 x106 -1 x116 -1 x126 -1 x136 -1 x146 -1 x156 -1 x166 -1 x176 -1 x186 >= -10;
+1 x7 +1 x17 +1 x27 +1 x37 +1 x47 +1 x57 +1 x67 +1 x77 +1 x87 +1 x97 +1 x107 +1 x117 +1 x127 +1 x137 +1 x147 +1 x157 +1 x167 +1 x177 +1 x187 >= 9;
-1 x7 -1 x17 -1 x27 -1 x37 -1 x47 -1 x57 -1 x67 -1 x77 -1 x87 -1 x97 -1 x107 -1 x117 -1 x127 -1 x137 -1 x147 -1 x157 -1 x167 -1 x177 -1 x187 >= -10;
+1 x8 +1 x18 +1 x28 +1 x38 +1 x48 +1 x58 +1 x68 +1 x78 +1 x88 +1 x98 +1 x108 +1 x118 +1 x128 +1 x138 +1 x148 +1 x158 +1 x168 +1 x178 +1 x188 >= 9;
-1 x8 -1 x18 -1 x28 -1 x38 -1 x48 -1 x58 -1 x68 -1 x78 -1 x88 -1 x98 -1 x108 -1 x118 -1 x128 -1 x138 -1 x148 -1 x158 -1 x168 -1 x178 -1 x188 >= -10;
+1 x9 +1 x19 +1 x29 +1 x39 +1 x49 +1 x59 +1 x69 +1 x79 +1 x89 +1 x99 +1 x109 +1 x119 +1 x129 +1 x139 +1 x149 +1 x159 +1 x169 +1 x179 +1 x189 >= 9;
-1 x9 -1 x19 -1 x29 -1 x39 -1 x49 -1 x59 -1 x69 -1 x79 -1 x89 -1 x99 -1 x109 -1 x119 -1 x129 -1 x139 -1 x149 -1 x159 -1 x169 -1 x179 -1 x189 >= -10;
+1 x10 +1 x20 +1 x30 +1 x40 +1 x50 +1 x60 +1 x70 +1 x80 +1 x90 +1 x100 +1 x110 +1 x120 +1 x130 +1 x140 +1 x150 +1 x160 +1 x170 +1 x180 +1 x190 >= 9;
-1 x10 -1 x20 -1 x30 -1 x40 -1 x50 -1 x60 -1 x70 -1 x80 -1 x90 -1 x100 -1 x110 -1 x120 -1 x130 -1 x140 -1 x150 -1 x160 -1 x170 -1 x180 -1 x190 >= -10;
+1 x11 +1 x21 +1 x31 +1 x41 +1 x51 +1 x61 +1 x71 +1 x81 +1 x91 +1 x101 +1 x111 +1 x121 +1 x131 +1 x141 +1 x151 +1 x161 +1 x171 +1 x181 +1 x191 >= 9;
-1 x11 -1 x21 -1 x31 -1 x41 -1 x51 -1 x61 -1 x71 -1 x81 -1 x91 -1 x101 -1 x111 -1 x121 -1 x131 -1 x141 -1 x151 -1 x161 -1 x171 -1 x181 -1 x191 >= -10;
+1 x12 +1 x22 +1 x32 +1 x42 +1 x52 +1 x62 +1 x72 +1 x82 +1 x92 +1 x102 +1 x112 +1 x122 +1 x132 +1 x142 +1 x152 +1 x162 +1 x172 +1 x182 +1 x192 >= 9;
-1 x12 -1 x22 -1 x32 -1 x42 -1 x52 -1 x62 -1 x72 -1 x82 -1 x92 -1 x102 -1 x112 -1 x122 -1 x132 -1 x142 -1 x152 -1 x162 -1 x172 -1 x182 -1 x192 >= -10;
+1 x13 +1 x23 +1 x33 +1 x43 +1 x53 +1 x63 +1 x73 +1 x83 +1 x93 +1 x103 +1 x113 +1 x123 +1 x133 +1 x143 +1 x153 +1 x163 +1 x173 +1 x183 +1 x193 >= 9;
-1 x13 -1 x23 -1 x33 -1 x43 -1 x53 -1 x63 -1 x73 -1 x83 -1 x93 -1 x103 -1 x113 -1 x123 -1 x133 -1 x143 -1 x153 -1 x163 -1 x173 -1 x183 -1 x193 >= -10;
+1 x14 +1 x24 +1 x34 +1 x44 +1 x54 +1 x64 +1 x74 +1 x84 +1 x94 +1 x104 +1 x114 +1 x124 +1 x134 +1 x144 +1 x154 +1 x164 +1 x174 +1 x184 +1 x194 >= 9;
-1 x14 -1 x24 -1 x34 -1 x44 -1 x54 -1 x64 -1 x74 -1 x84 -1 x94 -1 x104 -1 x114 -1 x124 -1 x134 -1 x144 -1 x154 -1 x164 -1 x174 -1 x184 -1 x194 >= -10;
+1 x15 +1 x25 +1 x35 +1 x45 +1 x55 +1 x65 +1 x75 +1 x85 +1 x95 +1 x105 +1 x115 +1 x125 +1 x135 +1 x145 +1 x155 +1 x165 +1 x175 +1 x185 +1 x195 >= 9;
-1 x15 -1 x25 -1 x35 -1 x45 -1 x55 -1 x65 -1 x75 -1 x85 -1 x95 -1 x105 -1 x115 -1 x125 -1 x135 -1 x145 -1 x155 -1 x165 -1 x175 -1 x185 -1 x195 >= -10;
+1 x16 +1 x26 +1 x36 +1 x46 +1 x56 +1 x66 +1 x76 +1 x86 +1 x96 +1 x106 +1 x116 +1 x126 +1 x136 +1 x146 +1 x156 +1 x166 +1 x176 +1 x186 +1 x196 >= 9;
-1 x16 -1 x26 -1 x36 -1 x46 -1 x56 -1 x66 -1 x76 -1 x86 -1 x96 -1 x106 -1 x116 -1 x126 -1 x136 -1 x146 -1 x156 -1 x166 -1 x176 -1 x186 -1 x196 >= -10;
+1 x17 +1 x27 +1 x37 +1 x47 +1 x57 +1 x67 +1 x77 +1 x87 +1 x97 +1 x107 +1 x117 +1 x127 +1 x137 +1 x147 +1 x157 +1 x167 +1 x177 +1 x187 +1 x197 >= 9;
-1 x17 -1 x27 -1 x37 -1 x47 -1 x57 -1 x67 -1 x77 -1 x87 -1 x97 -1 x107 -1 x117 -1 x127 -1 x137 -1 x147 -1 x157 -1 x167 -1 x177 -1 x187 -1 x197 >= -10;
+1 x18 +1 x28 +1 x38 +1 x48 +1 x58 +1 x68 +1 x78 +1 x88 +1 x98 +1 x108 +1 x118 +1 x128 +1 x138 +1 x148 +1 x158 +1 x168 +1 x178 +1 x188 +1 x198 >= 9;
-1 x18 -1 x28 -1 x38 -1 x48 -1 x58 -1 x68 -1 x78 -1 x88 -1 x98 -1 x108 -1 x118 -1 x128 -1 x138 -1 x148 -1 x158 -1 x168 -1 x178 -1 x188 -1 x198 >= -10;
+1 x19 +1 x29 +1 x39 +1 x49 +1 x59 +1 x69 +1 x79 +1 x89 +1 x99 +1 x109 +1 x119 +1 x129 +1 x139 +1 x149 +1 x159 +1 x169 +1 x179 +1 x189 +1 x199 >= 9;
-1 x19 -1 x29 -1 x39 -1 x49 -1 x59 -1 x69 -1 x79 -1 x89 -1 x99 -1 x109 -1 x119 -1 x129 -1 x139 -1 x149 -1 x159 -1 x169 -1 x179 -1 x189 -1 x199 >= -10;
+1 x20 +1 x30 +1 x40 +1 x50 +1 x60 +1 x70 +1 x80 +1 x90 +1 x100 +1 x110 +1 x120 +1 x130 +1 x140 +1 x150 +1 x160 +1 x170 +1 x180 +1 x190 +1 x200 >= 9;
-1 x20 -1 x30 -1 x40 -1 x50 -1 x60 -1 x70 -1 x80 -1 x90 -1 x100 -1 x110 -1 x120 -1 x130 -1 x140 -1 x150 -1 x160 -1 x170 -1 x180 -1 x190 -1 x200 >= -10;
+1 x21 +1 x31 +1 x41 +1 x51 +1 x61 +1 x71 +1 x81 +1 x91 +1 x101 +1 x111 +1 x121 +1 x131 +1 x141 +1 x151 +1 x161 +1 x171 +1 x181 +1 x191 +1 x201 >= 9;
-1 x21 -1 x31 -1 x41 -1 x51 -1 x61 -1 x71 -1 x81 -1 x91 -1 x101 -1 x111 -1 x121 -1 x131 -1 x141 -1 x151 -1 x161 -1 x171 -1 x181 -1 x191 -1 x201 >= -10;
+1 x22 +1 x32 +1 x42 +1 x52 +1 x62 +1 x72 +1 x82 +1 x92 +1 x102 +1 x112 +1 x122 +1 x132 +1 x142 +1 x152 +1 x162 +1 x172 +1 x182 +1 x192 +1 x202 >= 9;
-1 x22 -1 x32 -1 x42 -1 x52 -1 x62 -1 x72 -1 x82 -1 x92 -1 x102 -1 x112 -1 x122 -1 x132 -1 x142 -1 x152 -1 x162 -1 x172 -1 x182 -1 x192 -1 x202 >= -10;
+1 x23 +1 x33 +1 x43 +1 x53 +1 x63 +1 x73 +1 x83 +1 x93 +1 x103 +1 x113 +1 x123 +1 x133 +1 x143 +1 x153 +1 x163 +1 x173 +1 x183 +1 x193 +1 x203 >= 9;
-1 x23 -1 x33 -1 x43 -1 x53 -1 x63 -1 x73 -1 x83 -1 x93 -1 x103 -1 x113 -1 x123 -1 x133 -1 x143 -1 x153 -1 x163 -1 x173 -1 x183 -1 x193 -1 x203 >= -10;
+1 x24 +1 x34 +1 x44 +1 x54 +1 x64 +1 x74 +1 x84 +1 x94 +1 x104 +1 x114 +1 x124 +1 x134 +1 x144 +1 x154 +1 x164 +1 x174 +1 x184 +1 x194 +1 x204 >= 9;
-1 x24 -1 x34 -1 x44 -1 x54 -1 x64 -1 x74 -1 x84 -1 x94 -1 x104 -1 x114 -1 x124 -1 x134 -1 x144 -1 x154 -1 x164 -1 x174 -1 x184 -1 x194 -1 x204 >= -10;
+1 x25 +1 x35 +1 x45 +1 x55 +1 x65 +1 x75 +1 x85 +1 x95 +1 x105 +1 x115 +1 x125 +1 x135 +1 x145 +1 x155 +1 x165 +1 x175 +1 x185 +1 x195 +1 x205 >= 9;
-1 x25 -1 x35 -1 x45 -1 x55 -1 x65 -1 x75 -1 x85 -1 x95 -1 x105 -1 x115 -1 x125 -1 x135 -1 x145 -1 x155 -1 x165 -1 x175 -1 x185 -1 x195 -1 x205 >= -10;
+1 x26 +1 x36 +1 x46 +1 x56 +1 x66 +1 x76 +1 x86 +1 x96 +1 x106 +1 x116 +1 x126 +1 x136 +1 x146 +1 x156 +1 x166 +1 x176 +1 x186 +1 x196 +1 x206 >= 9;
-1 x26 -1 x36 -1 x46 -1 x56 -1 x66 -1 x76 -1 x86 -1 x96 -1 x106 -1 x116 -1 x126 -1 x136 -1 x146 -1 x156 -1 x166 -1 x176 -1 x186 -1 x196 -1 x206 >= -10;
+1 x27 +1 x37 +1 x47 +1 x57 +1 x67 +1 x77 +1 x87 +1 x97 +1 x107 +1 x117 +1 x127 +1 x137 +1 x147 +1 x157 +1 x167 +1 x177 +1 x187 +1 x197 +1 x207 >= 9;
-1 x27 -1 x37 -1 x47 -1 x57 -1 x67 -1 x77 -1 x87 -1 x97 -1 x107 -1 x117 -1 x127 -1 x137 -1 x147 -1 x157 -1 x167 -1 x177 -1 x187 -1 x197 -1 x207 >= -10;
+1 x28 +1 x38 +1 x48 +1 x58 +1 x68 +1 x78 +1 x88 +1 x98 +1 x108 +1 x118 +1 x128 +1 x138 +1 x148 +1 x158 +1 x168 +1 x178 +1 x188 +1 x198 +1 x208 >= 9;
-1 x28 -1 x38 -1 x48 -1 x58 -1 x68 -1 x78 -1 x88 -1 x98 -1 x108 -1 x118 -1 x128 -1 x138 -1 x148 -1 x158 -1 x168 -1 x178 -1 x188 -1 x198 -1 x208 >= -10;
+1 x29 +1 x39 +1 x49 +1 x59 +1 x69 +1 x79 +1 x89 +1 x99 +1 x109 +1 x119 +1 x129 +1 x139 +1 x149 +1 x159 +1 x169 +1 x179 +1 x189 +1 x199 +1 x209 >= 9;
-1 x29 -1 x39 -1 x49 -1 x59 -1 x69 -1 x79 -1 x89 -1 x99 -1 x109 -1 x119 -1 x129 -1 x139 -1 x149 -1 x159 -1 x169 -1 x179 -1 x189 -1 x199 -1 x209 >= -10;
+1 x30 +1 x40 +1 x50 +1 x60 +1 x70 +1 x80 +1 x90 +1 x100 +1 x110 +1 x120 +1 x130 +1 x140 +1 x150 +1 x160 +1 x170 +1 x180 +1 x190 +1 x200 +1 x210 >= 9;
-1 x30 -1 x40 -1 x50 -1 x60 -1 x70 -1 x80 -1 x90 -1 x100 -1 x110 -1 x120 -1 x130 -1 x140 -1 x150 -1 x160 -1 x170 -1 x180 -1 x190 -1 x200 -1 x210 >= -10;
+1 x31 +1 x41 +1 x51 +1 x61 +1 x71 +1 x81 +1 x91 +1 x101 +1 x111 +1 x121 +1 x131 +1 x141 +1 x151 +1 x161 +1 x171 +1 x181 +1 x191 +1 x201 +1 x211 >= 9;
-1 x31 -1 x41 -1 x51 -1 x61 -1 x71 -1 x81 -1 x91 -1 x101 -1 x111 -1 x121 -1 x131 -1 x141 -1 x151 -1 x161 -1 x171 -1 x181 -1 x191 -1 x201 -1 x211 >= -10;
+1 x32 +1 x42 +1 x52 +1 x62 +1 x72 +1 x82 +1 x92 +1 x102 +1 x112 +1 x122 +1 x132 +1 x142 +1 x152 +1 x162 +1 x172 +1 x182 +1 x192 +1 x202 +1 x212 >= 9;
-1 x32 -1 x42 -1 x52 -1 x62 -1 x72 -1 x82 -1 x92 -1 x102 -1 x112 -1 x122 -1 x132 -1 x142 -1 x152 -1 x162 -1 x172 -1 x182 -1 x192 -1 x202 -1 x212 >= -10;
+1 x33 +1 x43 +1 x53 +1 x63 +1 x73 +1 x83 +1 x93 +1 x103 +1 x113 +1 x123 +1 x133 +1 x143 +1 x153 +1 x163 +1 x173 +1 x183 +1 x193 +1 x203 +1 x213 >= 9;
-1 x33 -1 x43 -1 x53 -1 x63 -1 x73 -1 x83 -1 x93 -1 x103 -1 x113 -1 x123 -1 x133 -1 x143 -1 x153 -1 x163 -1 x173 -1 x183 -1 x193 -1 x203 -1 x213 >= -10;
+1 x34 +1 x44 +1 x54 +1 x64 +1 x74 +1 x84 +1 x94 +1 x104 +1 x114 +1 x124 +1 x134 +1 x144 +1 x154 +1 x164 +1 x174 +1 x184 +1 x194 +1 x204 +1 x214 >= 9;
-1 x34 -1 x44 -1 x54 -1 x64 -1 x74 -1 x84 -1 x94 -1 x104 -1 x114 -1 x124 -1 x134 -1 x144 -1 x154 -1 x164 -1 x174 -1 x184 -1 x194 -1 x204 -1 x214 >= -10;
+1 x35 +1 x45 +1 x55 +1 x65 +1 x75 +1 x85 +1 x95 +1 x105 +1 x115 +1 x125 +1 x135 +1 x145 +1 x155 +1 x165 +1 x175 +1 x185 +1 x195 +1 x205 +1 x215 >= 9;
-1 x35 -1 x45 -1 x55 -1 x65 -1 x75 -1 x85 -1 x95 -1 x105 -1 x115 -1 x125 -1 x135 -1 x145 -1 x155 -1 x165 -1 x175 -1 x185 -1 x195 -1 x205 -1 x215 >= -10;
+1 x36 +1 x46 +1 x56 +1 x66 +1 x76 +1 x86 +1 x96 +1 x106 +1 x116 +1 x126 +1 x136 +1 x146 +1 x156 +1 x166 +1 x176 +1 x186 +1 x196 +1 x206 +1 x216 >= 9;
-1 x36 -1 x46 -1 x56 -1 x66 -1 x76 -1 x86 -1 x96 -1 x106 -1 x116 -1 x126 -1 x136 -1 x146 -1 x156 -1 x166 -1 x176 -1 x186 -1 x196 -1 x206 -1 x216 >= -10;
+1 x37 +1 x47 +1 x57 +1 x67 +1 x77 +1 x87 +1 x97 +1 x107 +1 x117 +1 x127 +1 x137 +1 x147 +1 x157 +1 x167 +1 x177 +1 x187 +1 x197 +1 x207 +1 x217 >= 9;
-1 x37 -1 x47 -1 x57 -1 x67 -1 x77 -1 x87 -1 x97 -1 x107 -1 x117 -1 x127 -1 x137 -1 x147 -1 x157 -1 x167 -1 x177 -1 x187 -1 x197 -1 x207 -1 x217 >= -10;
+1 x38 +1 x48 +1 x58 +1 x68 +1 x78 +1 x88 +1 x98 +1 x108 +1 x118 +1 x128 +1 x138 +1 x148 +1 x158 +1 x168 +1 x178 +1 x188 +1 x198 +1 x208 +1 x218 >= 9;
-1 x38 -1 x48 -1 x58 -1 x68 -1 x78 -1 x88 -1 x98 -1 x108 -1 x118 -1 x128 -1 x138 -1 x148 -1 x158 -1 x168 -1 x178 -1 x188 -1 x198 -1 x208 -1 x218 >= -10;
+1 x39 +1 x49 +1 x59 +1 x69 +1 x79 +1 x89 +1 x99 +1 x109 +1 x119 +1 x129 +1 x139 +1 x149 +1 x159 +1 x169 +1 x179 +1 x189 +1 x199 +1 x209 +1 x219 >= 9;
-1 x39 -1 x49 -1 x59 -1 x69 -1 x79 -1 x89 -1 x99 -1 x109 -1 x119 -1 x129 -1 x139 -1 x149 -1 x159 -1 x169 -1 x179 -1 x189 -1 x199 -1 x209 -1 x219 >= -10;
+1 x40 +1 x50 +1 x60 +1 x70 +1 x80 +1 x90 +1 x100 +1 x110 +1 x120 +1 x130 +1 x140 +1 x150 +1 x160 +1 x170 +1 x180 +1 x190 +1 x200 +1 x210 +1 x220 >= 9;
-1 x40 -1 x50 -1 x60 -1 x70 -1 x80 -1 x90 -1 x100 -1 x110 -1 x120 -1 x130 -1 x140 -1 x150 -1 x160 -1 x170 -1 x180 -1 x190 -1 x200 -1 x210 -1 x220 >= -10;
+1 x41 +1 x51 +1 x61 +1 x71 +1 x81 +1 x91 +1 x101 +1 x111 +1 x121 +1 x131 +1 x141 +1 x151 +1 x161 +1 x171 +1 x181 +1 x191 +1 x201 +1 x211 +1 x221 >= 9;
-1 x41 -1 x51 -1 x61 -1 x71 -1 x81 -1 x91 -1 x101 -1 x111 -1 x121 -1 x131 -1 x141 -1 x151 -1 x161 -1 x171 -1 x181 -1 x191 -1 x201 -1 x211 -1 x221 >= -10;
+1 x42 +1 x52 +1 x62 +1 x72 +1 x82 +1 x92 +1 x102 +1 x112 +1 x122 +1 x132 +1 x142 +1 x152 +1 x162 +1 x172 +1 x182 +1 x192 +1 x202 +1 x212 +1 x222 >= 9;
-1 x42 -1 x52 -1 x62 -1 x72 -1 x82 -1 x92 -1 x102 -1 x112 -1 x122 -1 x132 -1 x142 -1 x152 -1 x162 -1 x172 -1 x182 -1 x192 -1 x202 -1 x212 -1 x222 >= -10;
+1 x43 +1 x53 +1 x63 +1 x73 +1 x83 +1 x93 +1 x103 +1 x113 +1 x123 +1 x133 +1 x143 +1 x153 +1 x163 +1 x173 +1 x183 +1 x193 +1 x203 +1 x213 +1 x223 >= 9;
-1 x43 -1 x53 -1 x63 -1 x73 -1 x83 -1 x93 -1 x103 -1 x113 -1 x123 -1 x133 -1 x143 -1 x153 -1 x163 -1 x173 -1 x183 -1 x193 -1 x203 -1 x213 -1 x223 >= -10;
+1 x44 +1 x54 +1 x64 +1 x74 +1 x84 +1 x94 +1 x104 +1 x114 +1 x124 +1 x134 +1 x144 +1 x154 +1 x164 +1 x174 +1 x184 +1 x194 +1 x204 +1 x214 +1 x224 >= 9;
-1 x44 -1 x54 -1 x64 -1 x74 -1 x84 -1 x94 -1 x104 -1 x114 -1 x124 -1 x134 -1 x144 -1 x154 -1 x164 -1 x174 -1 x184 -1 x194 -1 x204 -1 x214 -1 x224 >= -10;
+1 x45 +1 x55 +1 x65 +1 x75 +1 x85 +1 x95 +1 x105 +1 x115 +1 x125 +1 x135 +1 x145 +1 x155 +1 x165 +1 x175 +1 x185 +1 x195 +1 x205 +1 x215 +1 x225 >= 9;
-1 x45 -1 x55 -1 x65 -1 x75 -1 x85 -1 x95 -1 x105 -1 x115 -1 x125 -1 x135 -1 x145 -1 x155 -1 x165 -1 x175 -1 x185 -1 x195 -1 x205 -1 x215 -1 x225 >= -10;
+1 x46 +1 x56 +1 x66 +1 x76 +1 x86 +1 x96 +1 x106 +1 x116 +1 x126 +1 x136 +1 x146 +1 x156 +1 x166 +1 x176 +1 x186 +1 x196 +1 x206 +1 x216 +1 x226 >= 9;
-1 x46 -1 x56 -1 x66 -1 x76 -1 x86 -1 x96 -1 x106 -1 x116 -1 x126 -1 x136 -1 x146 -1 x156 -1 x166 -1 x176 -1 x186 -1 x196 -1 x206 -1 x216 -1 x226 >= -10;
+1 x47 +1 x57 +1 x67 +1 x77 +1 x87 +1 x97 +1 x107 +1 x117 +1 x127 +1 x137 +1 x147 +1 x157 +1 x167 +1 x177 +1 x187 +1 x197 +1 x207 +1 x217 +1 x227 >= 9;
-1 x47 -1 x57 -1 x67 -1 x77 -1 x87 -1 x97 -1 x107 -1 x117 -1 x127 -1 x137 -1 x147 -1 x157 -1 x167 -1 x177 -1 x187 -1 x197 -1 x207 -1 x217 -1 x227 >= -10;
+1 x48 +1 x58 +1 x68 +1 x78 +1 x88 +1 x98 +1 x108 +1 x118 +1 x128 +1 x138 +1 x148 +1 x158 +1 x168 +1 x178 +1 x188 +1 x198 +1 x208 +1 x218 +1 x228 >= 9;
-1 x48 -1 x58 -1 x68 -1 x78 -1 x88 -1 x98 -1 x108 -1 x118 -1 x128 -1 x138 -1 x148 -1 x158 -1 x168 -1 x178 -1 x188 -1 x198 -1 x208 -1 x218 -1 x228 >= -10;
+1 x49 +1 x59 +1 x69 +1 x79 +1 x89 +1 x99 +1 x109 +1 x119 +1 x129 +1 x139 +1 x149 +1 x159 +1 x169 +1 x179 +1 x189 +1 x199 +1 x209 +1 x219 +1 x229 >= 9;
-1 x49 -1 x59 -1 x69 -1 x79 -1 x89 -1 x99 -1 x109 -1 x119 -1 x129 -1 x139 -1 x149 -1 x159 -1 x169 -1 x179 -1 x189 -1 x199 -1 x209 -1 x219 -1 x229 >= -10;
+1 x50 +1 x60 +1 x70 +1 x80 +1 x90 +1 x100 +1 x110 +1 x120 +1 x130 +1 x140 +1 x150 +1 x160 +1 x170 +1 x180 +1 x190 +1 x200 +1 x210 +1 x220 +1 x230 >= 9;
-1 x50 -1 x60 -1 x70 -1 x80 -1 x90 -1 x100 -1 x110 -1 x120 -1 x130 -1 x140 -1 x150 -1 x160 -1 x170 -1 x180 -1 x190 -1 x200 -1 x210 -1 x220 -1 x230 >= -10;
+1 x51 +1 x61 +1 x71 +1 x81 +1 x91 +1 x101 +1 x111 +1 x121 +1 x131 +1 x141 +1 x151 +1 x161 +1 x171 +1 x181 +1 x191 +1 x201 +1 x211 +1 x221 +1 x231 >= 9;
-1 x51 -1 x61 -1 x71 -1 x81 -1 x91 -1 x101 -1 x111 -1 x121 -1 x131 -1 x141 -1 x151 -1 x161 -1 x171 -1 x181 -1 x191 -1 x201 -1 x211 -1 x221 -1 x231 >= -10;
+1 x52 +1 x62 +1 x72 +1 x82 +1 x92 +1 x102 +1 x112 +1 x122 +1 x132 +1 x142 +1 x152 +1 x162 +1 x172 +1 x182 +1 x192 +1 x202 +1 x212 +1 x222 +1 x232 >= 9;
-1 x52 -1 x62 -1 x72 -1 x82 -1 x92 -1 x102 -1 x112 -1 x122 -1 x132 -1 x142 -1 x152 -1 x162 -1 x172 -1 x182 -1 x192 -1 x202 -1 x212 -1 x222 -1 x232 >= -10;
+1 x53 +1 x63 +1 x73 +1 x83 +1 x93 +1 x103 +1 x113 +1 x123 +1 x133 +1 x143 +1 x153 +1 x163 +1 x173 +1 x183 +1 x193 +1 x203 +1 x213 +1 x223 +1 x233 >= 9;
-1 x53 -1 x63 -1 x73 -1 x83 -1 x93 -1 x103 -1 x113 -1 x123 -1 x133 -1 x143 -1 x153 -1 x163 -1 x173 -1 x183 -1 x193 -1 x203 -1 x213 -1 x223 -1 x233 >= -10;
+1 x54 +1 x64 +1 x74 +1 x84 +1 x94 +1 x104 +1 x114 +1 x124 +1 x134 +1 x144 +1 x154 +1 x164 +1 x174 +1 x184 +1 x194 +1 x204 +1 x214 +1 x224 +1 x234 >= 9;
-1 x54 -1 x64 -1 x74 -1 x84 -1 x94 -1 x104 -1 x114 -1 x124 -1 x134 -1 x144 -1 x154 -1 x164 -1 x174 -1 x184 -1 x194 -1 x204 -1 x214 -1 x224 -1 x234 >= -10;
+1 x55 +1 x65 +1 x75 +1 x85 +1 x95 +1 x105 +1 x115 +1 x125 +1 x135 +1 x145 +1 x155 +1 x165 +1 x175 +1 x185 +1 x195 +1 x205 +1 x215 +1 x225 +1 x235 >= 9;
-1 x55 -1 x65 -1 x75 -1 x85 -1 x95 -1 x105 -1 x115 -1 x125 -1 x135 -1 x145 -1 x155 -1 x165 -1 x175 -1 x185 -1 x195 -1 x205 -1 x215 -1 x225 -1 x235 >= -10;
+1 x56 +1 x66 +1 x76 +1 x86 +1 x96 +1 x106 +1 x116 +1 x126 +1 x136 +1 x146 +1 x156 +1 x166 +1 x176 +1 x186 +1 x196 +1 x206 +1 x216 +1 x226 +1 x236 >= 9;
-1 x56 -1 x66 -1 x76 -1 x86 -1 x96 -1 x106 -1 x116 -1 x126 -1 x136 -1 x146 -1 x156 -1 x166 -1 x176 -1 x186 -1 x196 -1 x206 -1 x216 -1 x226 -1 x236 >= -10;
+1 x57 +1 x67 +1 x77 +1 x87 +1 x97 +1 x107 +1 x117 +1 x127 +1 x137 +1 x147 +1 x157 +1 x167 +1 x177 +1 x187 +1 x197 +1 x207 +1 x217 +1 x227 +1 x237 >= 9;
-1 x57 -1 x67 -1 x77 -1 x87 -1 x97 -1 x107 -1 x117 -1 x127 -1 x137 -1 x147 -1 x157 -1 x167 -1 x177 -1 x187 -1 x197 -1 x207 -1 x217 -1 x227 -1 x237 >= -10;
+1 x58 +1 x68 +1 x78 +1 x88 +1 x98 +1 x108 +1 x118 +1 x128 +1 x138 +1 x148 +1 x158 +1 x168 +1 x178 +1 x188 +1 x198 +1 x208 +1 x218 +1 x228 +1 x238 >= 9;
-1 x58 -1 x68 -1 x78 -1 x88 -1 x98 -1 x108 -1 x118 -1 x128 -1 x138 -1 x148 -1 x158 -1 x168 -1 x178 -1 x188 -1 x198 -1 x208 -1 x218 -1 x228 -1 x238 >= -10;
+1 x59 +1 x69 +1 x79 +1 x89 +1 x99 +1 x109 +1 x119 +1 x129 +1 x139 +1 x149 +1 x159 +1 x169 +1 x179 +1 x189 +1 x199 +1 x209 +1 x219 +1 x229 +1 x239 >= 9;
-1 x59 -1 x69 -1 x79 -1 x89 -1 x99 -1 x109 -1 x119 -1 x129 -1 x139 -1 x149 -1 x159 -1 x169 -1 x179 -1 x189 -1 x199 -1 x209 -1 x219 -1 x229 -1 x239 >= -10;
+1 x60 +1 x70 +1 x80 +1 x90 +1 x100 +1 x110 +1 x120 +1 x130 +1 x140 +1 x150 +1 x160 +1 x170 +1 x180 +1 x190 +1 x200 +1 x210 +1 x220 +1 x230 +1 x240 >= 9;
-1 x60 -1 x70 -1 x80 -1 x90 -1 x100 -1 x110 -1 x120 -1 x130 -1 x140 -1 x150 -1 x160 -1 x170 -1 x180 -1 x190 -1 x200 -1 x210 -1 x220 -1 x230 -1 x240 >= -10;
+1 x61 +1 x71 +1 x81 +1 x91 +1 x101 +1 x111 +1 x121 +1 x131 +1 x141 +1 x151 +1 x161 +1 x171 +1 x181 +1 x191 +1 x201 +1 x211 +1 x221 +1 x231 +1 x241 >= 9;
-1 x61 -1 x71 -1 x81 -1 x91 -1 x101 -1 x111 -1 x121 -1 x131 -1 x141 -1 x151 -1 x161 -1 x171 -1 x181 -1 x191 -1 x201 -1 x211 -1 x221 -1 x231 -1 x241 >= -10;
+1 x62 +1 x72 +1 x82 +1 x92 +1 x102 +1 x112 +1 x122 +1 x132 +1 x142 +1 x152 +1 x162 +1 x172 +1 x182 +1 x192 +1 x202 +1 x212 +1 x222 +1 x232 +1 x242 >= 9;
-1 x62 -1 x72 -1 x82 -1 x92 -1 x102 -1 x112 -1 x122 -1 x132 -1 x142 -1 x152 -1 x162 -1 x172 -1 x182 -1 x192 -1 x202 -1 x212 -1 x222 -1 x232 -1 x242 >= -10;
+1 x63 +1 x73 +1 x83 +1 x93 +1 x103 +1 x113 +1 x123 +1 x133 +1 x143 +1 x153 +1 x163 +1 x173 +1 x183 +1 x193 +1 x203 +1 x213 +1 x223 +1 x233 +1 x243 >= 9;
-1 x63 -1 x73 -1 x83 -1 x93 -1 x103 -1 x113 -1 x123 -1 x133 -1 x143 -1 x153 -1 x163 -1 x173 -1 x183 -1 x193 -1 x203 -1 x213 -1 x223 -1 x233 -1 x243 >= -10;
+1 x64 +1 x74 +1 x84 +1 x94 +1 x104 +1 x114 +1 x124 +1 x134 +1 x144 +1 x154 +1 x164 +1 x174 +1 x184 +1 x194 +1 x204 +1 x214 +1 x224 +1 x234 +1 x244 >= 9;
-1 x64 -1 x74 -1 x84 -1 x94 -1 x104 -1 x114 -1 x124 -1 x134 -1 x144 -1 x154 -1 x164 -1 x174 -1 x184 -1 x194 -1 x204 -1 x214 -1 x224 -1 x234 -1 x244 >= -10;
+1 x65 +1 x75 +1 x85 +1 x95 +1 x105 +1 x115 +1 x125 +1 x135 +1 x145 +1 x155 +1 x165 +1 x175 +1 x185 +1 x195 +1 x205 +1 x215 +1 x225 +1 x235 +1 x245 >= 9;
-1 x65 -1 x75 -1 x85 -1 x95 -1 x105 -1 x115 -1 x125 -1 x135 -1 x145 -1 x155 -1 x165 -1 x175 -1 x185 -1 x195 -1 x205 -1 x215 -1 x225 -1 x235 -1 x245 >= -10;
+1 x66 +1 x76 +1 x86 +1 x96 +1 x106 +1 x116 +1 x126 +1 x136 +1 x146 +1 x156 +1 x166 +1 x176 +1 x186 +1 x196 +1 x206 +1 x216 +1 x226 +1 x236 +1 x246 >= 9;
-1 x66 -1 x76 -1 x86 -1 x96 -1 x106 -1 x116 -1 x126 -1 x136 -1 x146 -1 x156 -1 x166 -1 x176 -1 x186 -1 x196 -1 x206 -1 x216 -1 x226 -1 x236 -1 x246 >= -10;
+1 x67 +1 x77 +1 x87 +1 x97 +1 x107 +1 x117 +1 x127 +1 x137 +1 x147 +1 x157 +1 x167 +1 x177 +1 x187 +1 x197 +1 x207 +1 x217 +1 x227 +1 x237 +1 x247 >= 9;
-1 x67 -1 x77 -1 x87 -1 x97 -1 x107 -1 x117 -1 x127 -1 x137 -1 x147 -1 x157 -1 x167 -1 x177 -1 x187 -1 x197 -1 x207 -1 x217 -1 x227 -1 x237 -1 x247 >= -10;
+1 x68 +1 x78 +1 x88 +1 x98 +1 x108 +1 x118 +1 x128 +1 x138 +1 x148 +1 x158 +1 x168 +1 x178 +1 x188 +1 x198 +1 x208 +1 x218 +1 x228 +1 x238 +1 x248 >= 9;
-1 x68 -1 x78 -1 x88 -1 x98 -1 x108 -1 x118 -1 x128 -1 x138 -1 x148 -1 x158 -1 x168 -1 x178 -1 x188 -1 x198 -1 x208 -1 x218 -1 x228 -1 x238 -1 x248 >= -10;
+1 x69 +1 x79 +1 x89 +1 x99 +1 x109 +1 x119 +1 x129 +1 x139 +1 x149 +1 x159 +1 x169 +1 x179 +1 x189 +1 x199 +1 x209 +1 x219 +1 x229 +1 x239 +1 x249 >= 9;
-1 x69 -1 x79 -1 x89 -1 x99 -1 x109 -1 x119 -1 x129 -1 x139 -1 x149 -1 x159 -1 x169 -1 x179 -1 x189 -1 x199 -1 x209 -1 x219 -1 x229 -1 x239 -1 x249 >= -10;
+1 x70 +1 x80 +1 x90 +1 x100 +1 x110 +1 x120 +1 x130 +1 x140 +1 x150 +1 x160 +1 x170 +1 x180 +1 x190 +1 x200 +1 x210 +1 x220 +1 x230 +1 x240 +1 x250 >= 9;
-1 x70 -1 x80 -1 x90 -1 x100 -1 x110 -1 x120 -1 x130 -1 x140 -1 x150 -1 x160 -1 x170 -1 x180 -1 x190 -1 x200 -1 x210 -1 x220 -1 x230 -1 x240 -1 x250 >= -10;
+1 x71 +1 x81 +1 x91 +1 x101 +1 x111 +1 x121 +1 x131 +1 x141 +1 x151 +1 x161 +1 x171 +1 x181 +1 x191 +1 x201 +1 x211 +1 x221 +1 x231 +1 x241 +1 x251 >= 9;
-1 x71 -1 x81 -1 x91 -1 x101 -1 x111 -1 x121 -1 x131 -1 x141 -1 x151 -1 x161 -1 x171 -1 x181 -1 x191 -1 x201 -1 x211 -1 x221 -1 x231 -1 x241 -1 x251 >= -10;
+1 x72 +1 x82 +1 x92 +1 x102 +1 x112 +1 x122 +1 x132 +1 x142 +1 x152 +1 x162 +1 x172 +1 x182 +1 x192 +1 x202 +1 x212 +1 x222 +1 x232 +1 x242 +1 x252 >= 9;
-1 x72 -1 x82 -1 x92 -1 x102 -1 x112 -1 x122 -1 x132 -1 x142 -1 x152 -1 x162 -1 x172 -1 x182 -1 x192 -1 x202 -1 x212 -1 x222 -1 x232 -1 x242 -1 x252 >= -10;
+1 x73 +1 x83 +1 x93 +1 x103 +1 x113 +1 x123 +1 x133 +1 x143 +1 x153 +1 x163 +1 x173 +1 x183 +1 x193 +1 x203 +1 x213 +1 x223 +1 x233 +1 x243 +1 x253 >= 9;
-1 x73 -1 x83 -1 x93 -1 x103 -1 x113 -1 x123 -1 x133 -1 x143 -1 x153 -1 x163 -1 x173 -1 x183 -1 x193 -1 x203 -1 x213 -1 x223 -1 x233 -1 x243 -1 x253 >= -10;
+1 x74 +1 x84 +1 x94 +1 x104 +1 x114 +1 x124 +1 x134 +1 x144 +1 x154 +1 x164 +1 x174 +1 x184 +1 x194 +1 x204 +1 x214 +1 x224 +1 x234 +1 x244 +1 x254 >= 9;
-1 x74 -1 x84 -1 x94 -1 x104 -1 x114 -1 x124 -1 x134 -1 x144 -1 x154 -1 x164 -1 x174 -1 x184 -1 x194 -1 x204 -1 x214 -1 x224 -1 x234 -1 x244 -1 x254 >= -10;
+1 x75 +1 x85 +1 x95 +1 x105 +1 x115 +1 x125 +1 x135 +1 x145 +1 x155 +1 x165 +1 x175 +1 x185 +1 x195 +1 x205 +1 x215 +1 x225 +1 x235 +1 x245 +1 x255 >= 9;
-1 x75 -1 x85 -1 x95 -1 x105 -1 x115 -1 x125 -1 x135 -1 x145 -1 x155 -1 x165 -1 x175 -1 x185 -1 x195 -1 x205 -1 x215 -1 x225 -1 x235 -1 x245 -1 x255 >= -10;
+1 x76 +1 x86 +1 x96 +1 x106 +1 x116 +1 x126 +1 x136 +1 x146 +1 x156 +1 x166 +1 x176 +1 x186 +1 x196 +1 x206 +1 x216 +1 x226 +1 x236 +1 x246 +1 x256 >= 9;
-1 x76 -1 x86 -1 x96 -1 x106 -1 x116 -1 x126 -1 x136 -1 x146 -1 x156 -1 x166 -1 x176 -1 x186 -1 x196 -1 x206 -1 x216 -1 x226 -1 x236 -1 x246 -1 x256 >= -10;
+1 x77 +1 x87 +1 x97 +1 x107 +1 x117 +1 x127 +1 x137 +1 x147 +1 x157 +1 x167 +1 x177 +1 x187 +1 x197 +1 x207 +1 x217 +1 x227 +1 x237 +1 x247 +1 x257 >= 9;
-1 x77 -1 x87 -1 x97 -1 x107 -1 x117 -1 x127 -1 x137 -1 x147 -1 x157 -1 x167 -1 x177 -1 x187 -1 x197 -1 x207 -1 x217 -1 x227 -1 x237 -1 x247 -1 x257 >= -10;
+1 x78 +1 x88 +1 x98 +1 x108 +1 x118 +1 x128 +1 x138 +1 x148 +1 x158 +1 x168 +1 x178 +1 x188 +1 x198 +1 x208 +1 x218 +1 x228 +1 x238 +1 x248 +1 x258 >= 9;
-1 x78 -1 x88 -1 x98 -1 x108 -1 x118 -1 x128 -1 x138 -1 x148 -1 x158 -1 x168 -1 x178 -1 x188 -1 x198 -1 x208 -1 x218 -1 x228 -1 x238 -1 x248 -1 x258 >= -10;
+1 x79 +1 x89 +1 x99 +1 x109 +1 x119 +1 x129 +1 x139 +1 x149 +1 x159 +1 x169 +1 x179 +1 x189 +1 x199 +1 x209 +1 x219 +1 x229 +1 x239 +1 x249 +1 x259 >= 9;
-1 x79 -1 x89 -1 x99 -1 x109 -1 x119 -1 x129 -1 x139 -1 x149 -1 x159 -1 x169 -1 x179 -1 x189 -1 x199 -1 x209 -1 x219 -1 x229 -1 x239 -1 x249 -1 x259 >= -10;
+1 x80 +1 x90 +1 x100 +1 x110 +1 x120 +1 x130 +1 x140 +1 x150 +1 x160 +1 x170 +1 x180 +1 x190 +1 x200 +1 x210 +1 x220 +1 x230 +1 x240 +1 x250 +1 x260 >= 9;
-1 x80 -1 x90 -1 x100 -1 x110 -1 x120 -1 x130 -1 x140 -1 x150 -1 x160 -1 x170 -1 x180 -1 x190 -1 x200 -1 x210 -1 x220 -1 x230 -1 x240 -1 x250 -1 x260 >= -10;
+1 x81 +1 x91 +1 x101 +1 x111 +1 x121 +1 x131 +1 x141 +1 x151 +1 x161 +1 x171 +1 x181 +1 x191 +1 x201 +1 x211 +1 x221 +1 x231 +1 x241 +1 x251 +1 x261 >= 9;
-1 x81 -1 x91 -1 x101 -1 x111 -1 x121 -1 x131 -1 x141 -1 x151 -1 x161 -1 x171 -1 x181 -1 x191 -1 x201 -1 x211 -1 x221 -1 x231 -1 x241 -1 x251 -1 x261 >= -10;
+1 x82 +1 x92 +1 x102 +1 x112 +1 x122 +1 x132 +1 x142 +1 x152 +1 x162 +1 x172 +1 x182 +1 x192 +1 x202 +1 x212 +1 x222 +1 x232 +1 x242 +1 x252 +1 x262 >= 9;
-1 x82 -1 x92 -1 x102 -1 x112 -1 x122 -1 x132 -1 x142 -1 x152 -1 x162 -1 x172 -1 x182 -1 x192 -1 x202 -1 x212 -1 x222 -1 x232 -1 x242 -1 x252 -1 x262 >= -10;
+1 x83 +1 x93 +1 x103 +1 x113 +1 x123 +1 x133 +1 x143 +1 x153 +1 x163 +1 x173 +1 x183 +1 x193 +1 x203 +1 x213 +1 x223 +1 x233 +1 x243 +1 x253 +1 x263 >= 9;
-1 x83 -1 x93 -1 x103 -1 x113 -1 x123 -1 x133 -1 x143 -1 x153 -1 x163 -1 x173 -1 x183 -1 x193 -1 x203 -1 x213 -1 x223 -1 x233 -1 x243 -1 x253 -1 x263 >= -10;
+1 x84 +1 x94 +1 x104 +1 x114 +1 x124 +1 x134 +1 x144 +1 x154 +1 x164 +1 x174 +1 x184 +1 x194 +1 x204 +1 x214 +1 x224 +1 x234 +1 x244 +1 x254 +1 x264 >= 9;
-1 x84 -1 x94 -1 x104 -1 x114 -1 x124 -1 x134 -1 x144 -1 x154 -1 x164 -1 x174 -1 x184 -1 x194 -1 x204 -1 x214 -1 x224 -1 x234 -1 x244 -1 x254 -1 x264 >= -10;
+1 x85 +1 x95 +1 x105 +1 x115 +1 x125 +1 x135 +1 x145 +1 x155 +1 x165 +1 x175 +1 x185 +1 x195 +1 x205 +1 x215 +1 x225 +1 x235 +1 x245 +1 x255 +1 x265 >= 9;
-1 x85 -1 x95 -1 x105 -1 x115 -1 x125 -1 x135 -1 x145 -1 x155 -1 x165 -1 x175 -1 x185 -1 x195 -1 x205 -1 x215 -1 x225 -1 x235 -1 x245 -1 x255 -1 x265 >= -10;
+1 x86 +1 x96 +1 x106 +1 x116 +1 x126 +1 x136 +1 x146 +1 x156 +1 x166 +1 x176 +1 x186 +1 x196 +1 x206 +1 x216 +1 x226 +1 x236 +1 x246 +1 x256 +1 x266 >= 9;
-1 x86 -1 x96 -1 x106 -1 x116 -1 x126 -1 x136 -1 x146 -1 x156 -1 x166 -1 x176 -1 x186 -1 x196 -1 x206 -1 x216 -1 x226 -1 x236 -1 x246 -1 x256 -1 x266 >= -10;
+1 x87 +1 x97 +1 x107 +1 x117 +1 x127 +1 x137 +1 x147 +1 x157 +1 x167 +1 x177 +1 x187 +1 x197 +1 x207 +1 x217 +1 x227 +1 x237 +1 x247 +1 x257 +1 x267 >= 9;
-1 x87 -1 x97 -1 x107 -1 x117 -1 x127 -1 x137 -1 x147 -1 x157 -1 x167 -1 x177 -1 x187 -1 x197 -1 x207 -1 x217 -1 x227 -1 x237 -1 x247 -1 x257 -1 x267 >= -10;
+1 x88 +1 x98 +1 x108 +1 x118 +1 x128 +1 x138 +1 x148 +1 x158 +1 x168 +1 x178 +1 x188 +1 x198 +1 x208 +1 x218 +1 x228 +1 x238 +1 x248 +1 x258 +1 x268 >= 9;
-1 x88 -1 x98 -1 x108 -1 x118 -1 x128 -1 x138 -1 x148 -1 x158 -1 x168 -1 x178 -1 x188 -1 x198 -1 x208 -1 x218 -1 x228 -1 x238 -1 x248 -1 x258 -1 x268 >= -10;
+1 x89 +1 x99 +1 x109 +1 x119 +1 x129 +1 x139 +1 x149 +1 x159 +1 x169 +1 x179 +1 x189 +1 x199 +1 x209 +1 x219 +1 x229 +1 x239 +1 x249 +1 x259 +1 x269 >= 9;
-1 x89 -1 x99 -1 x109 -1 x119 -1 x129 -1 x139 -1 x149 -1 x159 -1 x169 -1 x179 -1 x189 -1 x199 -1 x209 -1 x219 -1 x229 -1 x239 -1 x249 -1 x259 -1 x269 >= -10;
+1 x90 +1 x100 +1 x110 +1 x120 +1 x130 +1 x140 +1 x150 +1 x160 +1 x170 +1 x180 +1 x190 +1 x200 +1 x210 +1 x220 +1 x230 +1 x240 +1 x250 +1 x260 +1 x270 >= 9;
-1 x90 -1 x100 -1 x110 -1 x120 -1 x130 -1 x140 -1 x150 -1 x160 -1 x170 -1 x180 -1 x190 -1 x200 -1 x210 -1 x220 -1 x230 -1 x240 -1 x250 -1 x260 -1 x270 >= -10;
+1 x91 +1 x101 +1 x111 +1 x121 +1 x131 +1 x141 +1 x151 +1 x161 +1 x171 +1 x181 +1 x191 +1 x201 +1 x211 +1 x221 +1 x231 +1 x241 +1 x251 +1 x261 +1 x271 >= 9;
-1 x91 -1 x101 -1 x111 -1 x121 -1 x131 -1 x141 -1 x151 -1 x161 -1 x171 -1 x181 -1 x191 -1 x201 -1 x211 -1 x221 -1 x231 -1 x241 -1 x251 -1 x261 -1 x271 >= -10;
+1 x92 +1 x102 +1 x112 +1 x122 +1 x132 +1 x142 +1 x152 +1 x162 +1 x172 +1 x182 +1 x192 +1 x202 +1 x212 +1 x222 +1 x232 +1 x242 +1 x252 +1 x262 +1 x272 >= 9;
-1 x92 -1 x102 -1 x112 -1 x122 -1 x132 -1 x142 -1 x152 -1 x162 -1 x172 -1 x182 -1 x192 -1 x202 -1 x212 -1 x222 -1 x232 -1 x242 -1 x252 -1 x262 -1 x272 >= -10;
+1 x93 +1 x103 +1 x113 +1 x123 +1 x133 +1 x143 +1 x153 +1 x163 +1 x173 +1 x183 +1 x193 +1 x203 +1 x213 +1 x223 +1 x233 +1 x243 +1 x253 +1 x263 +1 x273 >= 9;
-1 x93 -1 x103 -1 x113 -1 x123 -1 x133 -1 x143 -1 x153 -1 x163 -1 x173 -1 x183 -1 x193 -1 x203 -1 x213 -1 x223 -1 x233 -1 x243 -1 x253 -1 x263 -1 x273 >= -10;
+1 x94 +1 x104 +1 x114 +1 x124 +1 x134 +1 x144 +1 x154 +1 x164 +1 x174 +1 x184 +1 x194 +1 x204 +1 x214 +1 x224 +1 x234 +1 x244 +1 x254 +1 x264 +1 x274 >= 9;
-1 x94 -1 x104 -1 x114 -1 x124 -1 x134 -1 x144 -1 x154 -1 x164 -1 x174 -1 x184 -1 x194 -1 x204 -1 x214 -1 x224 -1 x234 -1 x244 -1 x254 -1 x264 -1 x274 >= -10;
+1 x95 +1 x105 +1 x115 +1 x125 +1 x135 +1 x145 +1 x155 +1 x165 +1 x175 +1 x185 +1 x195 +1 x205 +1 x215 +1 x225 +1 x235 +1 x245 +1 x255 +1 x265 +1 x275 >= 9;
-1 x95 -1 x105 -1 x115 -1 x125 -1 x135 -1 x145 -1 x155 -1 x165 -1 x175 -1 x185 -1 x195 -1 x205 -1 x215 -1 x225 -1 x235 -1 x245 -1 x255 -1 x265 -1 x275 >= -10;
+1 x96 +1 x106 +1 x116 +1 x126 +1 x136 +1 x146 +1 x156 +1 x166 +1 x176 +1 x186 +1 x196 +1 x206 +1 x216 +1 x226 +1 x236 +1 x246 +1 x256 +1 x266 +1 x276 >= 9;
-1 x96 -1 x106 -1 x116 -1 x126 -1 x136 -1 x146 -1 x156 -1 x166 -1 x176 -1 x186 -1 x196 -1 x206 -1 x216 -1 x226 -1 x236 -1 x246 -1 x256 -1 x266 -1 x276 >= -10;
+1 x97 +1 x107 +1 x117 +1 x127 +1 x137 +1 x147 +1 x157 +1 x167 +1 x177 +1 x187 +1 x197 +1 x207 +1 x217 +1 x227 +1 x237 +1 x247 +1 x257 +1 x267 +1 x277 >= 9;
-1 x97 -1 x107 -1 x117 -1 x127 -1 x137 -1 x147 -1 x157 -1 x167 -1 x177 -1 x187 -1 x197 -1 x207 -1 x217 -1 x227 -1 x237 -1 x247 -1 x257 -1 x267 -1 x277 >= -10;
+1 x98 +1 x108 +1 x118 +1 x128 +1 x138 +1 x148 +1 x158 +1 x168 +1 x178 +1 x188 +1 x198 +1 x208 +1 x218 +1 x228 +1 x238 +1 x248 +1 x258 +1 x268 +1 x278 >= 9;
-1 x98 -1 x108 -1 x118 -1 x128 -1 x138 -1 x148 -1 x158 -1 x168 -1 x178 -1 x188 -1 x198 -1 x208 -1 x218 -1 x228 -1 x238 -1 x248 -1 x258 -1 x268 -1 x278 >= -10;
+1 x99 +1 x109 +1 x119 +1 x129 +1 x139 +1 x149 +1 x159 +1 x169 +1 x179 +1 x189 +1 x199 +1 x209 +1 x219 +1 x229 +1 x239 +1 x249 +1 x259 +1 x269 +1 x279 >= 9;
-1 x99 -1 x109 -1 x119 -1 x129 -1 x139 -1 x149 -1 x159 -1 x169 -1 x179 -1 x189 -1 x199 -1 x209 -1 x219 -1 x229 -1 x239 -1 x249 -1 x259 -1 x269 -1 x279 >= -10;
+1 x100 +1 x110 +1 x120 +1 x130 +1 x140 +1 x150 +1 x160 +1 x170 +1 x180 +1 x190 +1 x200 +1 x210 +1 x220 +1 x230 +1 x240 +1 x250 +1 x260 +1 x270 +1 x280 >= 9;
-1 x100 -1 x110 -1 x120 -1 x130 -1 x140 -1 x150 -1 x160 -1 x170 -1 x180 -1 x190 -1 x200 -1 x210 -1 x220 -1 x230 -1 x240 -1 x250 -1 x260 -1 x270 -1 x280 >= -10;
+1 x101 +1 x111 +1 x121 +1 x131 +1 x141 +1 x151 +1 x161 +1 x171 +1 x181 +1 x191 +1 x201 +1 x211 +1 x221 +1 x231 +1 x241 +1 x251 +1 x261 +1 x271 +1 x281 >= 9;
-1 x101 -1 x111 -1 x121 -1 x131 -1 x141 -1 x151 -1 x161 -1 x171 -1 x181 -1 x191 -1 x201 -1 x211 -1 x221 -1 x231 -1 x241 -1 x251 -1 x261 -1 x271 -1 x281 >= -10;
+1 x102 +1 x112 +1 x122 +1 x132 +1 x142 +1 x152 +1 x162 +1 x172 +1 x182 +1 x192 +1 x202 +1 x212 +1 x222 +1 x232 +1 x242 +1 x252 +1 x262 +1 x272 +1 x282 >= 9;
-1 x102 -1 x112 -1 x122 -1 x132 -1 x142 -1 x152 -1 x162 -1 x172 -1 x182 -1 x192 -1 x202 -1 x212 -1 x222 -1 x232 -1 x242 -1 x252 -1 x262 -1 x272 -1 x282 >= -10;
+1 x103 +1 x113 +1 x123 +1 x133 +1 x143 +1 x153 +1 x163 +1 x173 +1 x183 +1 x193 +1 x203 +1 x213 +1 x223 +1 x233 +1 x243 +1 x253 +1 x263 +1 x273 +1 x283 >= 9;
-1 x103 -1 x113 -1 x123 -1 x133 -1 x143 -1 x153 -1 x163 -1 x173 -1 x183 -1 x193 -1 x203 -1 x213 -1 x223 -1 x233 -1 x243 -1 x253 -1 x263 -1 x273 -1 x283 >= -10;
+1 x104 +1 x114 +1 x124 +1 x134 +1 x144 +1 x154 +1 x164 +1 x174 +1 x184 +1 x194 +1 x204 +1 x214 +1 x224 +1 x234 +1 x244 +1 x254 +1 x264 +1 x274 +1 x284 >= 9;
-1 x104 -1 x114 -1 x124 -1 x134 -1 x144 -1 x154 -1 x164 -1 x174 -1 x184 -1 x194 -1 x204 -1 x214 -1 x224 -1 x234 -1 x244 -1 x254 -1 x264 -1 x274 -1 x284 >= -10;
+1 x105 +1 x115 +1 x125 +1 x135 +1 x145 +1 x155 +1 x165 +1 x175 +1 x185 +1 x195 +1 x205 +1 x215 +1 x225 +1 x235 +1 x245 +1 x255 +1 x265 +1 x275 +1 x285 >= 9;
-1 x105 -1 x115 -1 x125 -1 x135 -1 x145 -1 x155 -1 x165 -1 x175 -1 x185 -1 x195 -1 x205 -1 x215 -1 x225 -1 x235 -1 x245 -1 x255 -1 x265 -1 x275 -1 x285 >= -10;
+1 x106 +1 x116 +1 x126 +1 x136 +1 x146 +1 x156 +1 x166 +1 x176 +1 x186 +1 x196 +1 x206 +1 x216 +1 x226 +1 x236 +1 x246 +1 x256 +1 x266 +1 x276 +1 x286 >= 9;
-1 x106 -1 x116 -1 x126 -1 x136 -1 x146 -1 x156 -1 x166 -1 x176 -1 x186 -1 x196 -1 x206 -1 x216 -1 x226 -1 x236 -1 x246 -1 x256 -1 x266 -1 x276 -1 x286 >= -10;
+1 x107 +1 x117 +1 x127 +1 x137 +1 x147 +1 x157 +1 x167 +1 x177 +1 x187 +1 x197 +1 x207 +1 x217 +1 x227 +1 x237 +1 x247 +1 x257 +1 x267 +1 x277 +1 x287 >= 9;
-1 x107 -1 x117 -1 x127 -1 x137 -1 x147 -1 x157 -1 x167 -1 x177 -1 x187 -1 x197 -1 x207 -1 x217 -1 x227 -1 x237 -1 x247 -1 x257 -1 x267 -1 x277 -1 x287 >= -10;
+1 x108 +1 x118 +1 x128 +1 x138 +1 x148 +1 x158 +1 x168 +1 x178 +1 x188 +1 x198 +1 x208 +1 x218 +1 x228 +1 x238 +1 x248 +1 x258 +1 x268 +1 x278 +1 x288 >= 9;
-1 x108 -1 x118 -1 x128 -1 x138 -1 x148 -1 x158 -1 x168 -1 x178 -1 x188 -1 x198 -1 x208 -1 x218 -1 x228 -1 x238 -1 x248 -1 x258 -1 x268 -1 x278 -1 x288 >= -10;
+1 x109 +1 x119 +1 x129 +1 x139 +1 x149 +1 x159 +1 x169 +1 x179 +1 x189 +1 x199 +1 x209 +1 x219 +1 x229 +1 x239 +1 x249 +1 x259 +1 x269 +1 x279 +1 x289 >= 9;
-1 x109 -1 x119 -1 x129 -1 x139 -1 x149 -1 x159 -1 x169 -1 x179 -1 x189 -1 x199 -1 x209 -1 x219 -1 x229 -1 x239 -1 x249 -1 x259 -1 x269 -1 x279 -1 x289 >= -10;
+1 x110 +1 x120 +1 x130 +1 x140 +1 x150 +1 x160 +1 x170 +1 x180 +1 x190 +1 x200 +1 x210 +1 x220 +1 x230 +1 x240 +1 x250 +1 x260 +1 x270 +1 x280 +1 x290 >= 9;
-1 x110 -1 x120 -1 x130 -1 x140 -1 x150 -1 x160 -1 x170 -1 x180 -1 x190 -1 x200 -1 x210 -1 x220 -1 x230 -1 x240 -1 x250 -1 x260 -1 x270 -1 x280 -1 x290 >= -10;
+1 x111 +1 x121 +1 x131 +1 x141 +1 x151 +1 x161 +1 x171 +1 x181 +1 x191 +1 x201 +1 x211 +1 x221 +1 x231 +1 x241 +1 x251 +1 x261 +1 x271 +1 x281 +1 x291 >= 9;
-1 x111 -1 x121 -1 x131 -1 x141 -1 x151 -1 x161 -1 x171 -1 x181 -1 x191 -1 x201 -1 x211 -1 x221 -1 x231 -1 x241 -1 x251 -1 x261 -1 x271 -1 x281 -1 x291 >= -10;
+1 x112 +1 x122 +1 x132 +1 x142 +1 x152 +1 x162 +1 x172 +1 x182 +1 x192 +1 x202 +1 x212 +1 x222 +1 x232 +1 x242 +1 x252 +1 x262 +1 x272 +1 x282 +1 x292 >= 9;
-1 x112 -1 x122 -1 x132 -1 x142 -1 x152 -1 x162 -1 x172 -1 x182 -1 x192 -1 x202 -1 x212 -1 x222 -1 x232 -1 x242 -1 x252 -1 x262 -1 x272 -1 x282 -1 x292 >= -10;
+1 x113 +1 x123 +1 x133 +1 x143 +1 x153 +1 x163 +1 x173 +1 x183 +1 x193 +1 x203 +1 x213 +1 x223 +1 x233 +1 x243 +1 x253 +1 x263 +1 x273 +1 x283 +1 x293 >= 9;
-1 x113 -1 x123 -1 x133 -1 x143 -1 x153 -1 x163 -1 x173 -1 x183 -1 x193 -1 x203 -1 x213 -1 x223 -1 x233 -1 x243 -1 x253 -1 x263 -1 x273 -1 x283 -1 x293 >= -10;
+1 x114 +1 x124 +1 x134 +1 x144 +1 x154 +1 x164 +1 x174 +1 x184 +1 x194 +1 x204 +1 x214 +1 x224 +1 x234 +1 x244 +1 x254 +1 x264 +1 x274 +1 x284 +1 x294 >= 9;
-1 x114 -1 x124 -1 x134 -1 x144 -1 x154 -1 x164 -1 x174 -1 x184 -1 x194 -1 x204 -1 x214 -1 x224 -1 x234 -1 x244 -1 x254 -1 x264 -1 x274 -1 x284 -1 x294 >= -10;
+1 x115 +1 x125 +1 x135 +1 x145 +1 x155 +1 x165 +1 x175 +1 x185 +1 x195 +1 x205 +1 x215 +1 x225 +1 x235 +1 x245 +1 x255 +1 x265 +1 x275 +1 x285 +1 x295 >= 9;
-1 x115 -1 x125 -1 x135 -1 x145 -1 x155 -1 x165 -1 x175 -1 x185 -1 x195 -1 x205 -1 x215 -1 x225 -1 x235 -1 x245 -1 x255 -1 x265 -1 x275 -1 x285 -1 x295 >= -10;
+1 x116 +1 x126 +1 x136 +1 x146 +1 x156 +1 x166 +1 x176 +1 x186 +1 x196 +1 x206 +1 x216 +1 x226 +1 x236 +1 x246 +1 x256 +1 x266 +1 x276 +1 x286 +1 x296 >= 9;
-1 x116 -1 x126 -1 x136 -1 x146 -1 x156 -1 x166 -1 x176 -1 x186 -1 x196 -1 x206 -1 x216 -1 x226 -1 x236 -1 x246 -1 x256 -1 x266 -1 x276 -1 x286 -1 x296 >= -10;
+1 x117 +1 x127 +1 x137 +1 x147 +1 x157 +1 x167 +1 x177 +1 x187 +1 x197 +1 x207 +1 x217 +1 x227 +1 x237 +1 x247 +1 x257 +1 x267 +1 x277 +1 x287 +1 x297 >= 9;
-1 x117 -1 x127 -1 x137 -1 x147 -1 x157 -1 x167 -1 x177 -1 x187 -1 x197 -1 x207 -1 x217 -1 x227 -1 x237 -1 x247 -1 x257 -1 x267 -1 x277 -1 x287 -1 x297 >= -10;
+1 x118 +1 x128 +1 x138 +1 x148 +1 x158 +1 x168 +1 x178 +1 x188 +1 x198 +1 x208 +1 x218 +1 x228 +1 x238 +1 x248 +1 x258 +1 x268 +1 x278 +1 x288 +1 x298 >= 9;
-1 x118 -1 x128 -1 x138 -1 x148 -1 x158 -1 x168 -1 x178 -1 x188 -1 x198 -1 x208 -1 x218 -1 x228 -1 x238 -1 x248 -1 x258 -1 x268 -1 x278 -1 x288 -1 x298 >= -10;
+1 x119 +1 x129 +1 x139 +1 x149 +1 x159 +1 x169 +1 x179 +1 x189 +1 x199 +1 x209 +1 x219 +1 x229 +1 x239 +1 x249 +1 x259 +1 x269 +1 x279 +1 x289 +1 x299 >= 9;
-1 x119 -1 x129 -1 x139 -1 x149 -1 x159 -1 x169 -1 x179 -1 x189 -1 x199 -1 x209 -1 x219 -1 x229 -1 x239 -1 x249 -1 x259 -1 x269 -1 x279 -1 x289 -1 x299 >= -10;
+1 x120 +1 x130 +1 x140 +1 x150 +1 x160 +1 x170 +1 x180 +1 x190 +1 x200 +1 x210 +1 x220 +1 x230 +1 x240 +1 x250 +1 x260 +1 x270 +1 x280 +1 x290 +1 x300 >= 9;
-1 x120 -1 x130 -1 x140 -1 x150 -1 x160 -1 x170 -1 x180 -1 x190 -1 x200 -1 x210 -1 x220 -1 x230 -1 x240 -1 x250 -1 x260 -1 x270 -1 x280 -1 x290 -1 x300 >= -10;
+1 x121 +1 x131 +1 x141 +1 x151 +1 x161 +1 x171 +1 x181 +1 x191 +1 x201 +1 x211 +1 x221 +1 x231 +1 x241 +1 x251 +1 x261 +1 x271 +1 x281 +1 x291 +1 x301 >= 9;
-1 x121 -1 x131 -1 x141 -1 x151 -1 x161 -1 x171 -1 x181 -1 x191 -1 x201 -1 x211 -1 x221 -1 x231 -1 x241 -1 x251 -1 x261 -1 x271 -1 x281 -1 x291 -1 x301 >= -10;
+1 x122 +1 x132 +1 x142 +1 x152 +1 x162 +1 x172 +1 x182 +1 x192 +1 x202 +1 x212 +1 x222 +1 x232 +1 x242 +1 x252 +1 x262 +1 x272 +1 x282 +1 x292 +1 x302 >= 9;
-1 x122 -1 x132 -1 x142 -1 x152 -1 x162 -1 x172 -1 x182 -1 x192 -1 x202 -1 x212 -1 x222 -1 x232 -1 x242 -1 x252 -1 x262 -1 x272 -1 x282 -1 x292 -1 x302 >= -10;
+1 x123 +1 x133 +1 x143 +1 x153 +1 x163 +1 x173 +1 x183 +1 x193 +1 x203 +1 x213 +1 x223 +1 x233 +1 x243 +1 x253 +1 x263 +1 x273 +1 x283 +1 x293 +1 x303 >= 9;
-1 x123 -1 x133 -1 x143 -1 x153 -1 x163 -1 x173 -1 x183 -1 x193 -1 x203 -1 x213 -1 x223 -1 x233 -1 x243 -1 x253 -1 x263 -1 x273 -1 x283 -1 x293 -1 x303 >= -10;
+1 x124 +1 x134 +1 x144 +1 x154 +1 x164 +1 x174 +1 x184 +1 x194 +1 x204 +1 x214 +1 x224 +1 x234 +1 x244 +1 x254 +1 x264 +1 x274 +1 x284 +1 x294 +1 x304 >= 9;
-1 x124 -1 x134 -1 x144 -1 x154 -1 x164 -1 x174 -1 x184 -1 x194 -1 x204 -1 x214 -1 x224 -1 x234 -1 x244 -1 x254 -1 x264 -1 x274 -1 x284 -1 x294 -1 x304 >= -10;
+1 x125 +1 x135 +1 x145 +1 x155 +1 x165 +1 x175 +1 x185 +1 x195 +1 x205 +1 x215 +1 x225 +1 x235 +1 x245 +1 x255 +1 x265 +1 x275 +1 x285 +1 x295 +1 x305 >= 9;
-1 x125 -1 x135 -1 x145 -1 x155 -1 x165 -1 x175 -1 x185 -1 x195 -1 x205 -1 x215 -1 x225 -1 x235 -1 x245 -1 x255 -1 x265 -1 x275 -1 x285 -1 x295 -1 x305 >= -10;
+1 x126 +1 x136 +1 x146 +1 x156 +1 x166 +1 x176 +1 x186 +1 x196 +1 x206 +1 x216 +1 x226 +1 x236 +1 x246 +1 x256 +1 x266 +1 x276 +1 x286 +1 x296 +1 x306 >= 9;
-1 x126 -1 x136 -1 x146 -1 x156 -1 x166 -1 x176 -1 x186 -1 x196 -1 x206 -1 x216 -1 x226 -1 x236 -1 x246 -1 x256 -1 x266 -1 x276 -1 x286 -1 x296 -1 x306 >= -10;
+1 x127 +1 x137 +1 x147 +1 x157 +1 x167 +1 x177 +1 x187 +1 x197 +1 x207 +1 x217 +1 x227 +1 x237 +1 x247 +1 x257 +1 x267 +1 x277 +1 x287 +1 x297 +1 x307 >= 9;
-1 x127 -1 x137 -1 x147 -1 x157 -1 x167 -1 x177 -1 x187 -1 x197 -1 x207 -1 x217 -1 x227 -1 x237 -1 x247 -1 x257 -1 x267 -1 x277 -1 x287 -1 x297 -1 x307 >= -10;
+1 x128 +1 x138 +1 x148 +1 x158 +1 x168 +1 x178 +1 x188 +1 x198 +1 x208 +1 x218 +1 x228 +1 x238 +1 x248 +1 x258 +1 x268 +1 x278 +1 x288 +1 x298 +1 x308 >= 9;
-1 x128 -1 x138 -1 x148 -1 x158 -1 x168 -1 x178 -1 x188 -1 x198 -1 x208 -1 x218 -1 x228 -1 x238 -1 x248 -1 x258 -1 x268 -1 x278 -1 x288 -1 x298 -1 x308 >= -10;
+1 x129 +1 x139 +1 x149 +1 x159 +1 x169 +1 x179 +1 x189 +1 x199 +1 x209 +1 x219 +1 x229 +1 x239 +1 x249 +1 x259 +1 x269 +1 x279 +1 x289 +1 x299 +1 x309 >= 9;
-1 x129 -1 x139 -1 x149 -1 x159 -1 x169 -1 x179 -1 x189 -1 x199 -1 x209 -1 x219 -1 x229 -1 x239 -1 x249 -1 x259 -1 x269 -1 x279 -1 x289 -1 x299 -1 x309 >= -10;
+1 x130 +1 x140 +1 x150 +1 x160 +1 x170 +1 x180 +1 x190 +1 x200 +1 x210 +1 x220 +1 x230 +1 x240 +1 x250 +1 x260 +1 x270 +1 x280 +1 x290 +1 x300 +1 x310 >= 9;
-1 x130 -1 x140 -1 x150 -1 x160 -1 x170 -1 x180 -1 x190 -1 x200 -1 x210 -1 x220 -1 x230 -1 x240 -1 x250 -1 x260 -1 x270 -1 x280 -1 x290 -1 x300 -1 x310 >= -10;
+1 x131 +1 x141 +1 x151 +1 x161 +1 x171 +1 x181 +1 x191 +1 x201 +1 x211 +1 x221 +1 x231 +1 x241 +1 x251 +1 x261 +1 x271 +1 x281 +1 x291 +1 x301 +1 x311 >= 9;
-1 x131 -1 x141 -1 x151 -1 x161 -1 x171 -1 x181 -1 x191 -1 x201 -1 x211 -1 x221 -1 x231 -1 x241 -1 x251 -1 x261 -1 x271 -1 x281 -1 x291 -1 x301 -1 x311 >= -10;
+1 x132 +1 x142 +1 x152 +1 x162 +1 x172 +1 x182 +1 x192 +1 x202 +1 x212 +1 x222 +1 x232 +1 x242 +1 x252 +1 x262 +1 x272 +1 x282 +1 x292 +1 x302 +1 x312 >= 9;
-1 x132 -1 x142 -1 x152 -1 x162 -1 x172 -1 x182 -1 x192 -1 x202 -1 x212 -1 x222 -1 x232 -1 x242 -1 x252 -1 x262 -1 x272 -1 x282 -1 x292 -1 x302 -1 x312 >= -10;
+1 x133 +1 x143 +1 x153 +1 x163 +1 x173 +1 x183 +1 x193 +1 x203 +1 x213 +1 x223 +1 x233 +1 x243 +1 x253 +1 x263 +1 x273 +1 x283 +1 x293 +1 x303 +1 x313 >= 9;
-1 x133 -1 x143 -1 x153 -1 x163 -1 x173 -1 x183 -1 x193 -1 x203 -1 x213 -1 x223 -1 x233 -1 x243 -1 x253 -1 x263 -1 x273 -1 x283 -1 x293 -1 x303 -1 x313 >= -10;
+1 x134 +1 x144 +1 x154 +1 x164 +1 x174 +1 x184 +1 x194 +1 x204 +1 x214 +1 x224 +1 x234 +1 x244 +1 x254 +1 x264 +1 x274 +1 x284 +1 x294 +1 x304 +1 x314 >= 9;
-1 x134 -1 x144 -1 x154 -1 x164 -1 x174 -1 x184 -1 x194 -1 x204 -1 x214 -1 x224 -1 x234 -1 x244 -1 x254 -1 x264 -1 x274 -1 x284 -1 x294 -1 x304 -1 x314 >= -10;
+1 x135 +1 x145 +1 x155 +1 x165 +1 x175 +1 x185 +1 x195 +1 x205 +1 x215 +1 x225 +1 x235 +1 x245 +1 x255 +1 x265 +1 x275 +1 x285 +1 x295 +1 x305 +1 x315 >= 9;
-1 x135 -1 x145 -1 x155 -1 x165 -1 x175 -1 x185 -1 x195 -1 x205 -1 x215 -1 x225 -1 x235 -1 x245 -1 x255 -1 x265 -1 x275 -1 x285 -1 x295 -1 x305 -1 x315 >= -10;
+1 x136 +1 x146 +1 x156 +1 x166 +1 x176 +1 x186 +1 x196 +1 x206 +1 x216 +1 x226 +1 x236 +1 x246 +1 x256 +1 x266 +1 x276 +1 x286 +1 x296 +1 x306 +1 x316 >= 9;
-1 x136 -1 x146 -1 x156 -1 x166 -1 x176 -1 x186 -1 x196 -1 x206 -1 x216 -1 x226 -1 x236 -1 x246 -1 x256 -1 x266 -1 x276 -1 x286 -1 x296 -1 x306 -1 x316 >= -10;
+1 x137 +1 x147 +1 x157 +1 x167 +1 x177 +1 x187 +1 x197 +1 x207 +1 x217 +1 x227 +1 x237 +1 x247 +1 x257 +1 x267 +1 x277 +1 x287 +1 x297 +1 x307 +1 x317 >= 9;
-1 x137 -1 x147 -1 x157 -1 x167 -1 x177 -1 x187 -1 x197 -1 x207 -1 x217 -1 x227 -1 x237 -1 x247 -1 x257 -1 x267 -1 x277 -1 x287 -1 x297 -1 x307 -1 x317 >= -10;
+1 x138 +1 x148 +1 x158 +1 x168 +1 x178 +1 x188 +1 x198 +1 x208 +1 x218 +1 x228 +1 x238 +1 x248 +1 x258 +1 x268 +1 x278 +1 x288 +1 x298 +1 x308 +1 x318 >= 9;
-1 x138 -1 x148 -1 x158 -1 x168 -1 x178 -1 x188 -1 x198 -1 x208 -1 x218 -1 x228 -1 x238 -1 x248 -1 x258 -1 x268 -1 x278 -1 x288 -1 x298 -1 x308 -1 x318 >= -10;
+1 x139 +1 x149 +1 x159 +1 x169 +1 x179 +1 x189 +1 x199 +1 x209 +1 x219 +1 x229 +1 x239 +1 x249 +1 x259 +1 x269 +1 x279 +1 x289 +1 x299 +1 x309 +1 x319 >= 9;
-1 x139 -1 x149 -1 x159 -1 x169 -1 x179 -1 x189 -1 x199 -1 x209 -1 x219 -1 x229 -1 x239 -1 x249 -1 x259 -1 x269 -1 x279 -1 x289 -1 x299 -1 x309 -1 x319 >= -10;
+1 x140 +1 x150 +1 x160 +1 x170 +1 x180 +1 x190 +1 x200 +1 x210 +1 x220 +1 x230 +1 x240 +1 x250 +1 x260 +1 x270 +1 x280 +1 x290 +1 x300 +1 x310 +1 x320 >= 9;
-1 x140 -1 x150 -1 x160 -1 x170 -1 x180 -1 x190 -1 x200 -1 x210 -1 x220 -1 x230 -1 x240 -1 x250 -1 x260 -1 x270 -1 x280 -1 x290 -1 x300 -1 x310 -1 x320 >= -10;
+1 x141 +1 x151 +1 x161 +1 x171 +1 x181 +1 x191 +1 x201 +1 x211 +1 x221 +1 x231 +1 x241 +1 x251 +1 x261 +1 x271 +1 x281 +1 x291 +1 x301 +1 x311 +1 x321 >= 9;
-1 x141 -1 x151 -1 x161 -1 x171 -1 x181 -1 x191 -1 x201 -1 x211 -1 x221 -1 x231 -1 x241 -1 x251 -1 x261 -1 x271 -1 x281 -1 x291 -1 x301 -1 x311 -1 x321 >= -10;
+1 x142 +1 x152 +1 x162 +1 x172 +1 x182 +1 x192 +1 x202 +1 x212 +1 x222 +1 x232 +1 x242 +1 x252 +1 x262 +1 x272 +1 x282 +1 x292 +1 x302 +1 x312 +1 x322 >= 9;
-1 x142 -1 x152 -1 x162 -1 x172 -1 x182 -1 x192 -1 x202 -1 x212 -1 x222 -1 x232 -1 x242 -1 x252 -1 x262 -1 x272 -1 x282 -1 x292 -1 x302 -1 x312 -1 x322 >= -10;
+1 x143 +1 x153 +1 x163 +1 x173 +1 x183 +1 x193 +1 x203 +1 x213 +1 x223 +1 x233 +1 x243 +1 x253 +1 x263 +1 x273 +1 x283 +1 x293 +1 x303 +1 x313 +1 x323 >= 9;
-1 x143 -1 x153 -1 x163 -1 x173 -1 x183 -1 x193 -1 x203 -1 x213 -1 x223 -1 x233 -1 x243 -1 x253 -1 x263 -1 x273 -1 x283 -1 x293 -1 x303 -1 x313 -1 x323 >= -10;
+1 x144 +1 x154 +1 x164 +1 x174 +1 x184 +1 x194 +1 x204 +1 x214 +1 x224 +1 x234 +1 x244 +1 x254 +1 x264 +1 x274 +1 x284 +1 x294 +1 x304 +1 x314 +1 x324 >= 9;
-1 x144 -1 x154 -1 x164 -1 x174 -1 x184 -1 x194 -1 x204 -1 x214 -1 x224 -1 x234 -1 x244 -1 x254 -1 x264 -1 x274 -1 x284 -1 x294 -1 x304 -1 x314 -1 x324 >= -10;
+1 x145 +1 x155 +1 x165 +1 x175 +1 x185 +1 x195 +1 x205 +1 x215 +1 x225 +1 x235 +1 x245 +1 x255 +1 x265 +1 x275 +1 x285 +1 x295 +1 x305 +1 x315 +1 x325 >= 9;
-1 x145 -1 x155 -1 x165 -1 x175 -1 x185 -1 x195 -1 x205 -1 x215 -1 x225 -1 x235 -1 x245 -1 x255 -1 x265 -1 x275 -1 x285 -1 x295 -1 x305 -1 x315 -1 x325 >= -10;
+1 x146 +1 x156 +1 x166 +1 x176 +1 x186 +1 x196 +1 x206 +1 x216 +1 x226 +1 x236 +1 x246 +1 x256 +1 x266 +1 x276 +1 x286 +1 x296 +1 x306 +1 x316 +1 x326 >= 9;
-1 x146 -1 x156 -1 x166 -1 x176 -1 x186 -1 x196 -1 x206 -1 x216 -1 x226 -1 x236 -1 x246 -1 x256 -1 x266 -1 x276 -1 x286 -1 x296 -1 x306 -1 x316 -1 x326 >= -10;
+1 x147 +1 x157 +1 x167 +1 x177 +1 x187 +1 x197 +1 x207 +1 x217 +1 x227 +1 x237 +1 x247 +1 x257 +1 x267 +1 x277 +1 x287 +1 x297 +1 x307 +1 x317 +1 x327 >= 9;
-1 x147 -1 x157 -1 x167 -1 x177 -1 x187 -1 x197 -1 x207 -1 x217 -1 x227 -1 x237 -1 x247 -1 x257 -1 x267 -1 x277 -1 x287 -1 x297 -1 x307 -1 x317 -1 x327 >= -10;
+1 x148 +1 x158 +1 x168 +1 x178 +1 x188 +1 x198 +1 x208 +1 x218 +1 x228 +1 x238 +1 x248 +1 x258 +1 x268 +1 x278 +1 x288 +1 x298 +1 x308 +1 x318 +1 x328 >= 9;
-1 x148 -1 x158 -1 x168 -1 x178 -1 x188 -1 x198 -1 x208 -1 x218 -1 x228 -1 x238 -1 x248 -1 x258 -1 x268 -1 x278 -1 x288 -1 x298 -1 x308 -1 x318 -1 x328 >= -10;
+1 x149 +1 x159 +1 x169 +1 x179 +1 x189 +1 x199 +1 x209 +1 x219 +1 x229 +1 x239 +1 x249 +1 x259 +1 x269 +1 x279 +1 x289 +1 x299 +1 x309 +1 x319 +1 x329 >= 9;
-1 x149 -1 x159 -1 x169 -1 x179 -1 x189 -1 x199 -1 x209 -1 x219 -1 x229 -1 x239 -1 x249 -1 x259 -1 x269 -1 x279 -1 x289 -1 x299 -1 x309 -1 x319 -1 x329 >= -10;
+1 x150 +1 x160 +1 x170 +1 x180 +1 x190 +1 x200 +1 x210 +1 x220 +1 x230 +1 x240 +1 x250 +1 x260 +1 x270 +1 x280 +1 x290 +1 x300 +1 x310 +1 x320 +1 x330 >= 9;
-1 x150 -1 x160 -1 x170 -1 x180 -1 x190 -1 x200 -1 x210 -1 x220 -1 x230 -1 x240 -1 x250 -1 x260 -1 x270 -1 x280 -1 x290 -1 x300 -1 x310 -1 x320 -1 x330 >= -10;
+1 x151 +1 x161 +1 x171 +1 x181 +1 x191 +1 x201 +1 x211 +1 x221 +1 x231 +1 x241 +1 x251 +1 x261 +1 x271 +1 x281 +1 x291 +1 x301 +1 x311 +1 x321 +1 x331 >= 9;
-1 x151 -1 x161 -1 x171 -1 x181 -1 x191 -1 x201 -1 x211 -1 x221 -1 x231 -1 x241 -1 x251 -1 x261 -1 x271 -1 x281 -1 x291 -1 x301 -1 x311 -1 x321 -1 x331 >= -10;
+1 x152 +1 x162 +1 x172 +1 x182 +1 x192 +1 x202 +1 x212 +1 x222 +1 x232 +1 x242 +1 x252 +1 x262 +1 x272 +1 x282 +1 x292 +1 x302 +1 x312 +1 x322 +1 x332 >= 9;
-1 x152 -1 x162 -1 x172 -1 x182 -1 x192 -1 x202 -1 x212 -1 x222 -1 x232 -1 x242 -1 x252 -1 x262 -1 x272 -1 x282 -1 x292 -1 x302 -1 x312 -1 x322 -1 x332 >= -10;
+1 x153 +1 x163 +1 x173 +1 x183 +1 x193 +1 x203 +1 x213 +1 x223 +1 x233 +1 x243 +1 x253 +1 x263 +1 x273 +1 x283 +1 x293 +1 x303 +1 x313 +1 x323 +1 x333 >= 9;
-1 x153 -1 x163 -1 x173 -1 x183 -1 x193 -1 x203 -1 x213 -1 x223 -1 x233 -1 x243 -1 x253 -1 x263 -1 x273 -1 x283 -1 x293 -1 x303 -1 x313 -1 x323 -1 x333 >= -10;
+1 x154 +1 x164 +1 x174 +1 x184 +1 x194 +1 x204 +1 x214 +1 x224 +1 x234 +1 x244 +1 x254 +1 x264 +1 x274 +1 x284 +1 x294 +1 x304 +1 x314 +1 x324 +1 x334 >= 9;
-1 x154 -1 x164 -1 x174 -1 x184 -1 x194 -1 x204 -1 x214 -1 x224 -1 x234 -1 x244 -1 x254 -1 x264 -1 x274 -1 x284 -1 x294 -1 x304 -1 x314 -1 x324 -1 x334 >= -10;
+1 x155 +1 x165 +1 x175 +1 x185 +1 x195 +1 x205 +1 x215 +1 x225 +1 x235 +1 x245 +1 x255 +1 x265 +1 x275 +1 x285 +1 x295 +1 x305 +1 x315 +1 x325 +1 x335 >= 9;
-1 x155 -1 x165 -1 x175 -1 x185 -1 x195 -1 x205 -1 x215 -1 x225 -1 x235 -1 x245 -1 x255 -1 x265 -1 x275 -1 x285 -1 x295 -1 x305 -1 x315 -1 x325 -1 x335 >= -10;
+1 x156 +1 x166 +1 x176 +1 x186 +1 x196 +1 x206 +1 x216 +1 x226 +1 x236 +1 x246 +1 x256 +1 x266 +1 x276 +1 x286 +1 x296 +1 x306 +1 x316 +1 x326 +1 x336 >= 9;
-1 x156 -1 x166 -1 x176 -1 x186 -1 x196 -1 x206 -1 x216 -1 x226 -1 x236 -1 x246 -1 x256 -1 x266 -1 x276 -1 x286 -1 x296 -1 x306 -1 x316 -1 x326 -1 x336 >= -10;
+1 x157 +1 x167 +1 x177 +1 x187 +1 x197 +1 x207 +1 x217 +1 x227 +1 x237 +1 x247 +1 x257 +1 x267 +1 x277 +1 x287 +1 x297 +1 x307 +1 x317 +1 x327 +1 x337 >= 9;
-1 x157 -1 x167 -1 x177 -1 x187 -1 x197 -1 x207 -1 x217 -1 x227 -1 x237 -1 x247 -1 x257 -1 x267 -1 x277 -1 x287 -1 x297 -1 x307 -1 x317 -1 x327 -1 x337 >= -10;
+1 x158 +1 x168 +1 x178 +1 x188 +1 x198 +1 x208 +1 x218 +1 x228 +1 x238 +1 x248 +1 x258 +1 x268 +1 x278 +1 x288 +1 x298 +1 x308 +1 x318 +1 x328 +1 x338 >= 9;
-1 x158 -1 x168 -1 x178 -1 x188 -1 x198 -1 x208 -1 x218 -1 x228 -1 x238 -1 x248 -1 x258 -1 x268 -1 x278 -1 x288 -1 x298 -1 x308 -1 x318 -1 x328 -1 x338 >= -10;
+1 x159 +1 x169 +1 x179 +1 x189 +1 x199 +1 x209 +1 x219 +1 x229 +1 x239 +1 x249 +1 x259 +1 x269 +1 x279 +1 x289 +1 x299 +1 x309 +1 x319 +1 x329 +1 x339 >= 9;
-1 x159 -1 x169 -1 x179 -1 x189 -1 x199 -1 x209 -1 x219 -1 x229 -1 x239 -1 x249 -1 x259 -1 x269 -1 x279 -1 x289 -1 x299 -1 x309 -1 x319 -1 x329 -1 x339 >= -10;
+1 x160 +1 x170 +1 x180 +1 x190 +1 x200 +1 x210 +1 x220 +1 x230 +1 x240 +1 x250 +1 x260 +1 x270 +1 x280 +1 x290 +1 x300 +1 x310 +1 x320 +1 x330 +1 x340 >= 9;
-1 x160 -1 x170 -1 x180 -1 x190 -1 x200 -1 x210 -1 x220 -1 x230 -1 x240 -1 x250 -1 x260 -1 x270 -1 x280 -1 x290 -1 x300 -1 x310 -1 x320 -1 x330 -1 x340 >= -10;
+1 x161 +1 x171 +1 x181 +1 x191 +1 x201 +1 x211 +1 x221 +1 x231 +1 x241 +1 x251 +1 x261 +1 x271 +1 x281 +1 x291 +1 x301 +1 x311 +1 x321 +1 x331 +1 x341 >= 9;
-1 x161 -1 x171 -1 x181 -1 x191 -1 x201 -1 x211 -1 x221 -1 x231 -1 x241 -1 x251 -1 x261 -1 x271 -1 x281 -1 x291 -1 x301 -1 x311 -1 x321 -1 x331 -1 x341 >= -10;
+1 x162 +1 x172 +1 x182 +1 x192 +1 x202 +1 x212 +1 x222 +1 x232 +1 x242 +1 x252 +1 x262 +1 x272 +1 x282 +1 x292 +1 x302 +1 x312 +1 x322 +1 x332 +1 x342 >= 9;
-1 x162 -1 x172 -1 x182 -1 x192 -1 x202 -1 x212 -1 x222 -1 x232 -1 x242 -1 x252 -1 x262 -1 x272 -1 x282 -1 x292 -1 x302 -1 x312 -1 x322 -1 x332 -1 x342 >= -10;
+1 x163 +1 x173 +1 x183 +1 x193 +1 x203 +1 x213 +1 x223 +1 x233 +1 x243 +1 x253 +1 x263 +1 x273 +1 x283 +1 x293 +1 x303 +1 x313 +1 x323 +1 x333 +1 x343 >= 9;
-1 x163 -1 x173 -1 x183 -1 x193 -1 x203 -1 x213 -1 x223 -1 x233 -1 x243 -1 x253 -1 x263 -1 x273 -1 x283 -1 x293 -1 x303 -1 x313 -1 x323 -1 x333 -1 x343 >= -10;
+1 x164 +1 x174 +1 x184 +1 x194 +1 x204 +1 x214 +1 x224 +1 x234 +1 x244 +1 x254 +1 x264 +1 x274 +1 x284 +1 x294 +1 x304 +1 x314 +1 x324 +1 x334 +1 x344 >= 9;
-1 x164 -1 x174 -1 x184 -1 x194 -1 x204 -1 x214 -1 x224 -1 x234 -1 x244 -1 x254 -1 x264 -1 x274 -1 x284 -1 x294 -1 x304 -1 x314 -1 x324 -1 x334 -1 x344 >= -10;
+1 x1 +1 x12 +1 x23 +1 x34 +1 x45 +1 x56 +1 x67 +1 x78 +1 x89 +1 x100 +1 x111 +1 x122 +1 x133 +1 x144 +1 x155 +1 x166 +1 x177 +1 x188 +1 x199 >= 9;
-1 x1 -1 x12 -1 x23 -1 x34 -1 x45 -1 x56 -1 x67 -1 x78 -1 x89 -1 x100 -1 x111 -1 x122 -1 x133 -1 x144 -1 x155 -1 x166 -1 x177 -1 x188 -1 x199 >= -10;
+1 x2 +1 x13 +1 x24 +1 x35 +1 x46 +1 x57 +1 x68 +1 x79 +1 x90 +1 x101 +1 x112 +1 x123 +1 x134 +1 x145 +1 x156 +1 x167 +1 x178 +1 x189 +1 x200 >= 9;
-1 x2 -1 x13 -1 x24 -1 x35 -1 x46 -1 x57 -1 x68 -1 x79 -1 x90 -1 x101 -1 x112 -1 x123 -1 x134 -1 x145 -1 x156 -1 x167 -1 x178 -1 x189 -1 x200 >= -10;
+1 x3 +1 x14 +1 x25 +1 x36 +1 x47 +1 x58 +1 x69 +1 x80 +1 x91 +1 x102 +1 x113 +1 x124 +1 x135 +1 x146 +1 x157 +1 x168 +1 x179 +1 x190 +1 x201 >= 9;
-1 x3 -1 x14 -1 x25 -1 x36 -1 x47 -1 x58 -1 x69 -1 x80 -1 x91 -1 x102 -1 x113 -1 x124 -1 x135 -1 x146 -1 x157 -1 x168 -1 x179 -1 x190 -1 x201 >= -10;
+1 x4 +1 x15 +1 x26 +1 x37 +1 x48 +1 x59 +1 x70 +1 x81 +1 x92 +1 x103 +1 x114 +1 x125 +1 x136 +1 x147 +1 x158 +1 x169 +1 x180 +1 x191 +1 x202 >= 9;
-1 x4 -1 x15 -1 x26 -1 x37 -1 x48 -1 x59 -1 x70 -1 x81 -1 x92 -1 x103 -1 x114 -1 x125 -1 x136 -1 x147 -1 x158 -1 x169 -1 x180 -1 x191 -1 x202 >= -10;
+1 x5 +1 x16 +1 x27 +1 x38 +1 x49 +1 x60 +1 x71 +1 x82 +1 x93 +1 x104 +1 x115 +1 x126 +1 x137 +1 x148 +1 x159 +1 x170 +1 x181 +1 x192 +1 x203 >= 9;
-1 x5 -1 x16 -1 x27 -1 x38 -1 x49 -1 x60 -1 x71 -1 x82 -1 x93 -1 x104 -1 x115 -1 x126 -1 x137 -1 x148 -1 x159 -1 x170 -1 x181 -1 x192 -1 x203 >= -10;
+1 x6 +1 x17 +1 x28 +1 x39 +1 x50 +1 x61 +1 x72 +1 x83 +1 x94 +1 x105 +1 x116 +1 x127 +1 x138 +1 x149 +1 x160 +1 x171 +1 x182 +1 x193 +1 x204 >= 9;
-1 x6 -1 x17 -1 x28 -1 x39 -1 x50 -1 x61 -1 x72 -1 x83 -1 x94 -1 x105 -1 x116 -1 x127 -1 x138 -1 x149 -1 x160 -1 x171 -1 x182 -1 x193 -1 x204 >= -10;
+1 x7 +1 x18 +1 x29 +1 x40 +1 x51 +1 x62 +1 x73 +1 x84 +1 x95 +1 x106 +1 x117 +1 x128 +1 x139 +1 x150 +1 x161 +1 x172 +1 x183 +1 x194 +1 x205 >= 9;
-1 x7 -1 x18 -1 x29 -1 x40 -1 x51 -1 x62 -1 x73 -1 x84 -1 x95 -1 x106 -1 x117 -1 x128 -1 x139 -1 x150 -1 x161 -1 x172 -1 x183 -1 x194 -1 x205 >= -10;
+1 x8 +1 x19 +1 x30 +1 x41 +1 x52 +1 x63 +1 x74 +1 x85 +1 x96 +1 x107 +1 x118 +1 x129 +1 x140 +1 x151 +1 x162 +1 x173 +1 x184 +1 x195 +1 x206 >= 9;
-1 x8 -1 x19 -1 x30 -1 x41 -1 x52 -1 x63 -1 x74 -1 x85 -1 x96 -1 x107 -1 x118 -1 x129 -1 x140 -1 x151 -1 x162 -1 x173 -1 x184 -1 x195 -1 x206 >= -10;
+1 x9 +1 x20 +1 x31 +1 x42 +1 x53 +1 x64 +1 x75 +1 x86 +1 x97 +1 x108 +1 x119 +1 x130 +1 x141 +1 x152 +1 x163 +1 x174 +1 x185 +1 x196 +1 x207 >= 9;
-1 x9 -1 x20 -1 x31 -1 x42 -1 x53 -1 x64 -1 x75 -1 x86 -1 x97 -1 x108 -1 x119 -1 x130 -1 x141 -1 x152 -1 x163 -1 x174 -1 x185 -1 x196 -1 x207 >= -10;
+1 x10 +1 x21 +1 x32 +1 x43 +1 x54 +1 x65 +1 x76 +1 x87 +1 x98 +1 x109 +1 x120 +1 x131 +1 x142 +1 x153 +1 x164 +1 x175 +1 x186 +1 x197 +1 x208 >= 9;
-1 x10 -1 x21 -1 x32 -1 x43 -1 x54 -1 x65 -1 x76 -1 x87 -1 x98 -1 x109 -1 x120 -1 x131 -1 x142 -1 x153 -1 x164 -1 x175 -1 x186 -1 x197 -1 x208 >= -10;
+1 x11 +1 x22 +1 x33 +1 x44 +1 x55 +1 x66 +1 x77 +1 x88 +1 x99 +1 x110 +1 x121 +1 x132 +1 x143 +1 x154 +1 x165 +1 x176 +1 x187 +1 x198 +1 x209 >= 9;
-1 x11 -1 x22 -1 x33 -1 x44 -1 x55 -1 x66 -1 x77 -1 x88 -1 x99 -1 x110 -1 x121 -1 x132 -1 x143 -1 x154 -1 x165 -1 x176 -1 x187 -1 x198 -1 x209 >= -10;
+1 x12 +1 x23 +1 x34 +1 x45 +1 x56 +1 x67 +1 x78 +1 x89 +1 x100 +1 x111 +1 x122 +1 x133 +1 x144 +1 x155 +1 x166 +1 x177 +1 x188 +1 x199 +1 x210 >= 9;
-1 x12 -1 x23 -1 x34 -1 x45 -1 x56 -1 x67 -1 x78 -1 x89 -1 x100 -1 x111 -1 x122 -1 x133 -1 x144 -1 x155 -1 x166 -1 x177 -1 x188 -1 x199 -1 x210 >= -10;
+1 x13 +1 x24 +1 x35 +1 x46 +1 x57 +1 x68 +1 x79 +1 x90 +1 x101 +1 x112 +1 x123 +1 x134 +1 x145 +1 x156 +1 x167 +1 x178 +1 x189 +1 x200 +1 x211 >= 9;
-1 x13 -1 x24 -1 x35 -1 x46 -1 x57 -1 x68 -1 x79 -1 x90 -1 x101 -1 x112 -1 x123 -1 x134 -1 x145 -1 x156 -1 x167 -1 x178 -1 x189 -1 x200 -1 x211 >= -10;
+1 x14 +1 x25 +1 x36 +1 x47 +1 x58 +1 x69 +1 x80 +1 x91 +1 x102 +1 x113 +1 x124 +1 x135 +1 x146 +1 x157 +1 x168 +1 x179 +1 x190 +1 x201 +1 x212 >= 9;
-1 x14 -1 x25 -1 x36 -1 x47 -1 x58 -1 x69 -1 x80 -1 x91 -1 x102 -1 x113 -1 x124 -1 x135 -1 x146 -1 x157 -1 x168 -1 x179 -1 x190 -1 x201 -1 x212 >= -10;
+1 x15 +1 x26 +1 x37 +1 x48 +1 x59 +1 x70 +1 x81 +1 x92 +1 x103 +1 x114 +1 x125 +1 x136 +1 x147 +1 x158 +1 x169 +1 x180 +1 x191 +1 x202 +1 x213 >= 9;
-1 x15 -1 x26 -1 x37 -1 x48 -1 x59 -1 x70 -1 x81 -1 x92 -1 x103 -1 x114 -1 x125 -1 x136 -1 x147 -1 x158 -1 x169 -1 x180 -1 x191 -1 x202 -1 x213 >= -10;
+1 x16 +1 x27 +1 x38 +1 x49 +1 x60 +1 x71 +1 x82 +1 x93 +1 x104 +1 x115 +1 x126 +1 x137 +1 x148 +1 x159 +1 x170 +1 x181 +1 x192 +1 x203 +1 x214 >= 9;
-1 x16 -1 x27 -1 x38 -1 x49 -1 x60 -1 x71 -1 x82 -1 x93 -1 x104 -1 x115 -1 x126 -1 x137 -1 x148 -1 x159 -1 x170 -1 x181 -1 x192 -1 x203 -1 x214 >= -10;
+1 x17 +1 x28 +1 x39 +1 x50 +1 x61 +1 x72 +1 x83 +1 x94 +1 x105 +1 x116 +1 x127 +1 x138 +1 x149 +1 x160 +1 x171 +1 x182 +1 x193 +1 x204 +1 x215 >= 9;
-1 x17 -1 x28 -1 x39 -1 x50 -1 x61 -1 x72 -1 x83 -1 x94 -1 x105 -1 x116 -1 x127 -1 x138 -1 x149 -1 x160 -1 x171 -1 x182 -1 x193 -1 x204 -1 x215 >= -10;
+1 x18 +1 x29 +1 x40 +1 x51 +1 x62 +1 x73 +1 x84 +1 x95 +1 x106 +1 x117 +1 x128 +1 x139 +1 x150 +1 x161 +1 x172 +1 x183 +1 x194 +1 x205 +1 x216 >= 9;
-1 x18 -1 x29 -1 x40 -1 x51 -1 x62 -1 x73 -1 x84 -1 x95 -1 x106 -1 x117 -1 x128 -1 x139 -1 x150 -1 x161 -1 x172 -1 x183 -1 x194 -1 x205 -1 x216 >= -10;
+1 x19 +1 x30 +1 x41 +1 x52 +1 x63 +1 x74 +1 x85 +1 x96 +1 x107 +1 x118 +1 x129 +1 x140 +1 x151 +1 x162 +1 x173 +1 x184 +1 x195 +1 x206 +1 x217 >= 9;
-1 x19 -1 x30 -1 x41 -1 x52 -1 x63 -1 x74 -1 x85 -1 x96 -1 x107 -1 x118 -1 x129 -1 x140 -1 x151 -1 x162 -1 x173 -1 x184 -1 x195 -1 x206 -1 x217 >= -10;
+1 x20 +1 x31 +1 x42 +1 x53 +1 x64 +1 x75 +1 x86 +1 x97 +1 x108 +1 x119 +1 x130 +1 x141 +1 x152 +1 x163 +1 x174 +1 x185 +1 x196 +1 x207 +1 x218 >= 9;
-1 x20 -1 x31 -1 x42 -1 x53 -1 x64 -1 x75 -1 x86 -1 x97 -1 x108 -1 x119 -1 x130 -1 x141 -1 x152 -1 x163 -1 x174 -1 x185 -1 x196 -1 x207 -1 x218 >= -10;
+1 x21 +1 x32 +1 x43 +1 x54 +1 x65 +1 x76 +1 x87 +1 x98 +1 x109 +1 x120 +1 x131 +1 x142 +1 x153 +1 x164 +1 x175 +1 x186 +1 x197 +1 x208 +1 x219 >= 9;
-1 x21 -1 x32 -1 x43 -1 x54 -1 x65 -1 x76 -1 x87 -1 x98 -1 x109 -1 x120 -1 x131 -1 x142 -1 x153 -1 x164 -1 x175 -1 x186 -1 x197 -1 x208 -1 x219 >= -10;
+1 x22 +1 x33 +1 x44 +1 x55 +1 x66 +1 x77 +1 x88 +1 x99 +1 x110 +1 x121 +1 x132 +1 x143 +1 x154 +1 x165 +1 x176 +1 x187 +1 x198 +1 x209 +1 x220 >= 9;
-1 x22 -1 x33 -1 x44 -1 x55 -1 x66 -1 x77 -1 x88 -1 x99 -1 x110 -1 x121 -1 x132 -1 x143 -1 x154 -1 x165 -1 x176 -1 x187 -1 x198 -1 x209 -1 x220 >= -10;
+1 x23 +1 x34 +1 x45 +1 x56 +1 x67 +1 x78 +1 x89 +1 x100 +1 x111 +1 x122 +1 x133 +1 x144 +1 x155 +1 x166 +1 x177 +1 x188 +1 x199 +1 x210 +1 x221 >= 9;
-1 x23 -1 x34 -1 x45 -1 x56 -1 x67 -1 x78 -1 x89 -1 x100 -1 x111 -1 x122 -1 x133 -1 x144 -1 x155 -1 x166 -1 x177 -1 x188 -1 x199 -1 x210 -1 x221 >= -10;
+1 x24 +1 x35 +1 x46 +1 x57 +1 x68 +1 x79 +1 x90 +1 x101 +1 x112 +1 x123 +1 x134 +1 x145 +1 x156 +1 x167 +1 x178 +1 x189 +1 x200 +1 x211 +1 x222 >= 9;
-1 x24 -1 x35 -1 x46 -1 x57 -1 x68 -1 x79 -1 x90 -1 x101 -1 x112 -1 x123 -1 x134 -1 x145 -1 x156 -1 x167 -1 x178 -1 x189 -1 x200 -1 x211 -1 x222 >= -10;
+1 x25 +1 x36 +1 x47 +1 x58 +1 x69 +1 x80 +1 x91 +1 x102 +1 x113 +1 x124 +1 x135 +1 x146 +1 x157 +1 x168 +1 x179 +1 x190 +1 x201 +1 x212 +1 x223 >= 9;
-1 x25 -1 x36 -1 x47 -1 x58 -1 x69 -1 x80 -1 x91 -1 x102 -1 x113 -1 x124 -1 x135 -1 x146 -1 x157 -1 x168 -1 x179 -1 x190 -1 x201 -1 x212 -1 x223 >= -10;
+1 x26 +1 x37 +1 x48 +1 x59 +1 x70 +1 x81 +1 x92 +1 x103 +1 x114 +1 x125 +1 x136 +1 x147 +1 x158 +1 x169 +1 x180 +1 x191 +1 x202 +1 x213 +1 x224 >= 9;
-1 x26 -1 x37 -1 x48 -1 x59 -1 x70 -1 x81 -1 x92 -1 x103 -1 x114 -1 x125 -1 x136 -1 x147 -1 x158 -1 x169 -1 x180 -1 x191 -1 x202 -1 x213 -1 x224 >= -10;
+1 x27 +1 x38 +1 x49 +1 x60 +1 x71 +1 x82 +1 x93 +1 x104 +1 x115 +1 x126 +1 x137 +1 x148 +1 x159 +1 x170 +1 x181 +1 x192 +1 x203 +1 x214 +1 x225 >= 9;
-1 x27 -1 x38 -1 x49 -1 x60 -1 x71 -1 x82 -1 x93 -1 x104 -1 x115 -1 x126 -1 x137 -1 x148 -1 x159 -1 x170 -1 x181 -1 x192 -1 x203 -1 x214 -1 x225 >= -10;
+1 x28 +1 x39 +1 x50 +1 x61 +1 x72 +1 x83 +1 x94 +1 x105 +1 x116 +1 x127 +1 x138 +1 x149 +1 x160 +1 x171 +1 x182 +1 x193 +1 x204 +1 x215 +1 x226 >= 9;
-1 x28 -1 x39 -1 x50 -1 x61 -1 x72 -1 x83 -1 x94 -1 x105 -1 x116 -1 x127 -1 x138 -1 x149 -1 x160 -1 x171 -1 x182 -1 x193 -1 x204 -1 x215 -1 x226 >= -10;
+1 x29 +1 x40 +1 x51 +1 x62 +1 x73 +1 x84 +1 x95 +1 x106 +1 x117 +1 x128 +1 x139 +1 x150 +1 x161 +1 x172 +1 x183 +1 x194 +1 x205 +1 x216 +1 x227 >= 9;
-1 x29 -1 x40 -1 x51 -1 x62 -1 x73 -1 x84 -1 x95 -1 x106 -1 x117 -1 x128 -1 x139 -1 x150 -1 x161 -1 x172 -1 x183 -1 x194 -1 x205 -1 x216 -1 x227 >= -10;
+1 x30 +1 x41 +1 x52 +1 x63 +1 x74 +1 x85 +1 x96 +1 x107 +1 x118 +1 x129 +1 x140 +1 x151 +1 x162 +1 x173 +1 x184 +1 x195 +1 x206 +1 x217 +1 x228 >= 9;
-1 x30 -1 x41 -1 x52 -1 x63 -1 x74 -1 x85 -1 x96 -1 x107 -1 x118 -1 x129 -1 x140 -1 x151 -1 x162 -1 x173 -1 x184 -1 x195 -1 x206 -1 x217 -1 x228 >= -10;
+1 x31 +1 x42 +1 x53 +1 x64 +1 x75 +1 x86 +1 x97 +1 x108 +1 x119 +1 x130 +1 x141 +1 x152 +1 x163 +1 x174 +1 x185 +1 x196 +1 x207 +1 x218 +1 x229 >= 9;
-1 x31 -1 x42 -1 x53 -1 x64 -1 x75 -1 x86 -1 x97 -1 x108 -1 x119 -1 x130 -1 x141 -1 x152 -1 x163 -1 x174 -1 x185 -1 x196 -1 x207 -1 x218 -1 x229 >= -10;
+1 x32 +1 x43 +1 x54 +1 x65 +1 x76 +1 x87 +1 x98 +1 x109 +1 x120 +1 x131 +1 x142 +1 x153 +1 x164 +1 x175 +1 x186 +1 x197 +1 x208 +1 x219 +1 x230 >= 9;
-1 x32 -1 x43 -1 x54 -1 x65 -1 x76 -1 x87 -1 x98 -1 x109 -1 x120 -1 x131 -1 x142 -1 x153 -1 x164 -1 x175 -1 x186 -1 x197 -1 x208 -1 x219 -1 x230 >= -10;
+1 x33 +1 x44 +1 x55 +1 x66 +1 x77 +1 x88 +1 x99 +1 x110 +1 x121 +1 x132 +1 x143 +1 x154 +1 x165 +1 x176 +1 x187 +1 x198 +1 x209 +1 x220 +1 x231 >= 9;
-1 x33 -1 x44 -1 x55 -1 x66 -1 x77 -1 x88 -1 x99 -1 x110 -1 x121 -1 x132 -1 x143 -1 x154 -1 x165 -1 x176 -1 x187 -1 x198 -1 x209 -1 x220 -1 x231 >= -10;
+1 x34 +1 x45 +1 x56 +1 x67 +1 x78 +1 x89 +1 x100 +1 x111 +1 x122 +1 x133 +1 x144 +1 x155 +1 x166 +1 x177 +1 x188 +1 x199 +1 x210 +1 x221 +1 x232 >= 9;
-1 x34 -1 x45 -1 x56 -1 x67 -1 x78 -1 x89 -1 x100 -1 x111 -1 x122 -1 x133 -1 x144 -1 x155 -1 x166 -1 x177 -1 x188 -1 x199 -1 x210 -1 x221 -1 x232 >= -10;
+1 x35 +1 x46 +1 x57 +1 x68 +1 x79 +1 x90 +1 x101 +1 x112 +1 x123 +1 x134 +1 x145 +1 x156 +1 x167 +1 x178 +1 x189 +1 x200 +1 x211 +1 x222 +1 x233 >= 9;
-1 x35 -1 x46 -1 x57 -1 x68 -1 x79 -1 x90 -1 x101 -1 x112 -1 x123 -1 x134 -1 x145 -1 x156 -1 x167 -1 x178 -1 x189 -1 x200 -1 x211 -1 x222 -1 x233 >= -10;
+1 x36 +1 x47 +1 x58 +1 x69 +1 x80 +1 x91 +1 x102 +1 x113 +1 x124 +1 x135 +1 x146 +1 x157 +1 x168 +1 x179 +1 x190 +1 x201 +1 x212 +1 x223 +1 x234 >= 9;
-1 x36 -1 x47 -1 x58 -1 x69 -1 x80 -1 x91 -1 x102 -1 x113 -1 x124 -1 x135 -1 x146 -1 x157 -1 x168 -1 x179 -1 x190 -1 x201 -1 x212 -1 x223 -1 x234 >= -10;
+1 x37 +1 x48 +1 x59 +1 x70 +1 x81 +1 x92 +1 x103 +1 x114 +1 x125 +1 x136 +1 x147 +1 x158 +1 x169 +1 x180 +1 x191 +1 x202 +1 x213 +1 x224 +1 x235 >= 9;
-1 x37 -1 x48 -1 x59 -1 x70 -1 x81 -1 x92 -1 x103 -1 x114 -1 x125 -1 x136 -1 x147 -1 x158 -1 x169 -1 x180 -1 x191 -1 x202 -1 x213 -1 x224 -1 x235 >= -10;
+1 x38 +1 x49 +1 x60 +1 x71 +1 x82 +1 x93 +1 x104 +1 x115 +1 x126 +1 x137 +1 x148 +1 x159 +1 x170 +1 x181 +1 x192 +1 x203 +1 x214 +1 x225 +1 x236 >= 9;
-1 x38 -1 x49 -1 x60 -1 x71 -1 x82 -1 x93 -1 x104 -1 x115 -1 x126 -1 x137 -1 x148 -1 x159 -1 x170 -1 x181 -1 x192 -1 x203 -1 x214 -1 x225 -1 x236 >= -10;
+1 x39 +1 x50 +1 x61 +1 x72 +1 x83 +1 x94 +1 x105 +1 x116 +1 x127 +1 x138 +1 x149 +1 x160 +1 x171 +1 x182 +1 x193 +1 x204 +1 x215 +1 x226 +1 x237 >= 9;
-1 x39 -1 x50 -1 x61 -1 x72 -1 x83 -1 x94 -1 x105 -1 x116 -1 x127 -1 x138 -1 x149 -1 x160 -1 x171 -1 x182 -1 x193 -1 x204 -1 x215 -1 x226 -1 x237 >= -10;
+1 x40 +1 x51 +1 x62 +1 x73 +1 x84 +1 x95 +1 x106 +1 x117 +1 x128 +1 x139 +1 x150 +1 x161 +1 x172 +1 x183 +1 x194 +1 x205 +1 x216 +1 x227 +1 x238 >= 9;
-1 x40 -1 x51 -1 x62 -1 x73 -1 x84 -1 x95 -1 x106 -1 x117 -1 x128 -1 x139 -1 x150 -1 x161 -1 x172 -1 x183 -1 x194 -1 x205 -1 x216 -1 x227 -1 x238 >= -10;
+1 x41 +1 x52 +1 x63 +1 x74 +1 x85 +1 x96 +1 x107 +1 x118 +1 x129 +1 x140 +1 x151 +1 x162 +1 x173 +1 x184 +1 x195 +1 x206 +1 x217 +1 x228 +1 x239 >= 9;
-1 x41 -1 x52 -1 x63 -1 x74 -1 x85 -1 x96 -1 x107 -1 x118 -1 x129 -1 x140 -1 x151 -1 x162 -1 x173 -1 x184 -1 x195 -1 x206 -1 x217 -1 x228 -1 x239 >= -10;
+1 x42 +1 x53 +1 x64 +1 x75 +1 x86 +1 x97 +1 x108 +1 x119 +1 x130 +1 x141 +1 x152 +1 x163 +1 x174 +1 x185 +1 x196 +1 x207 +1 x218 +1 x229 +1 x240 >= 9;
-1 x42 -1 x53 -1 x64 -1 x75 -1 x86 -1 x97 -1 x108 -1 x119 -1 x130 -1 x141 -1 x152 -1 x163 -1 x174 -1 x185 -1 x196 -1 x207 -1 x218 -1 x229 -1 x240 >= -10;
+1 x43 +1 x54 +1 x65 +1 x76 +1 x87 +1 x98 +1 x109 +1 x120 +1 x131 +1 x142 +1 x153 +1 x164 +1 x175 +1 x186 +1 x197 +1 x208 +1 x219 +1 x230 +1 x241 >= 9;
-1 x43 -1 x54 -1 x65 -1 x76 -1 x87 -1 x98 -1 x109 -1 x120 -1 x131 -1 x142 -1 x153 -1 x164 -1 x175 -1 x186 -1 x197 -1 x208 -1 x219 -1 x230 -1 x241 >= -10;
+1 x44 +1 x55 +1 x66 +1 x77 +1 x88 +1 x99 +1 x110 +1 x121 +1 x132 +1 x143 +1 x154 +1 x165 +1 x176 +1 x187 +1 x198 +1 x209 +1 x220 +1 x231 +1 x242 >= 9;
-1 x44 -1 x55 -1 x66 -1 x77 -1 x88 -1 x99 -1 x110 -1 x121 -1 x132 -1 x143 -1 x154 -1 x165 -1 x176 -1 x187 -1 x198 -1 x209 -1 x220 -1 x231 -1 x242 >= -10;
+1 x45 +1 x56 +1 x67 +1 x78 +1 x89 +1 x100 +1 x111 +1 x122 +1 x133 +1 x144 +1 x155 +1 x166 +1 x177 +1 x188 +1 x199 +1 x210 +1 x221 +1 x232 +1 x243 >= 9;
-1 x45 -1 x56 -1 x67 -1 x78 -1 x89 -1 x100 -1 x111 -1 x122 -1 x133 -1 x144 -1 x155 -1 x166 -1 x177 -1 x188 -1 x199 -1 x210 -1 x221 -1 x232 -1 x243 >= -10;
+1 x46 +1 x57 +1 x68 +1 x79 +1 x90 +1 x101 +1 x112 +1 x123 +1 x134 +1 x145 +1 x156 +1 x167 +1 x178 +1 x189 +1 x200 +1 x211 +1 x222 +1 x233 +1 x244 >= 9;
-1 x46 -1 x57 -1 x68 -1 x79 -1 x90 -1 x101 -1 x112 -1 x123 -1 x134 -1 x145 -1 x156 -1 x167 -1 x178 -1 x189 -1 x200 -1 x211 -1 x222 -1 x233 -1 x244 >= -10;
+1 x47 +1 x58 +1 x69 +1 x80 +1 x91 +1 x102 +1 x113 +1 x124 +1 x135 +1 x146 +1 x157 +1 x168 +1 x179 +1 x190 +1 x201 +1 x212 +1 x223 +1 x234 +1 x245 >= 9;
-1 x47 -1 x58 -1 x69 -1 x80 -1 x91 -1 x102 -1 x113 -1 x124 -1 x135 -1 x146 -1 x157 -1 x168 -1 x179 -1 x190 -1 x201 -1 x212 -1 x223 -1 x234 -1 x245 >= -10;
+1 x48 +1 x59 +1 x70 +1 x81 +1 x92 +1 x103 +1 x114 +1 x125 +1 x136 +1 x147 +1 x158 +1 x169 +1 x180 +1 x191 +1 x202 +1 x213 +1 x224 +1 x235 +1 x246 >= 9;
-1 x48 -1 x59 -1 x70 -1 x81 -1 x92 -1 x103 -1 x114 -1 x125 -1 x136 -1 x147 -1 x158 -1 x169 -1 x180 -1 x191 -1 x202 -1 x213 -1 x224 -1 x235 -1 x246 >= -10;
+1 x49 +1 x60 +1 x71 +1 x82 +1 x93 +1 x104 +1 x115 +1 x126 +1 x137 +1 x148 +1 x159 +1 x170 +1 x181 +1 x192 +1 x203 +1 x214 +1 x225 +1 x236 +1 x247 >= 9;
-1 x49 -1 x60 -1 x71 -1 x82 -1 x93 -1 x104 -1 x115 -1 x126 -1 x137 -1 x148 -1 x159 -1 x170 -1 x181 -1 x192 -1 x203 -1 x214 -1 x225 -1 x236 -1 x247 >= -10;
+1 x50 +1 x61 +1 x72 +1 x83 +1 x94 +1 x105 +1 x116 +1 x127 +1 x138 +1 x149 +1 x160 +1 x171 +1 x182 +1 x193 +1 x204 +1 x215 +1 x226 +1 x237 +1 x248 >= 9;
-1 x50 -1 x61 -1 x72 -1 x83 -1 x94 -1 x105 -1 x116 -1 x127 -1 x138 -1 x149 -1 x160 -1 x171 -1 x182 -1 x193 -1 x204 -1 x215 -1 x226 -1 x237 -1 x248 >= -10;
+1 x51 +1 x62 +1 x73 +1 x84 +1 x95 +1 x106 +1 x117 +1 x128 +1 x139 +1 x150 +1 x161 +1 x172 +1 x183 +1 x194 +1 x205 +1 x216 +1 x227 +1 x238 +1 x249 >= 9;
-1 x51 -1 x62 -1 x73 -1 x84 -1 x95 -1 x106 -1 x117 -1 x128 -1 x139 -1 x150 -1 x161 -1 x172 -1 x183 -1 x194 -1 x205 -1 x216 -1 x227 -1 x238 -1 x249 >= -10;
+1 x52 +1 x63 +1 x74 +1 x85 +1 x96 +1 x107 +1 x118 +1 x129 +1 x140 +1 x151 +1 x162 +1 x173 +1 x184 +1 x195 +1 x206 +1 x217 +1 x228 +1 x239 +1 x250 >= 9;
-1 x52 -1 x63 -1 x74 -1 x85 -1 x96 -1 x107 -1 x118 -1 x129 -1 x140 -1 x151 -1 x162 -1 x173 -1 x184 -1 x195 -1 x206 -1 x217 -1 x228 -1 x239 -1 x250 >= -10;
+1 x53 +1 x64 +1 x75 +1 x86 +1 x97 +1 x108 +1 x119 +1 x130 +1 x141 +1 x152 +1 x163 +1 x174 +1 x185 +1 x196 +1 x207 +1 x218 +1 x229 +1 x240 +1 x251 >= 9;
-1 x53 -1 x64 -1 x75 -1 x86 -1 x97 -1 x108 -1 x119 -1 x130 -1 x141 -1 x152 -1 x163 -1 x174 -1 x185 -1 x196 -1 x207 -1 x218 -1 x229 -1 x240 -1 x251 >= -10;
+1 x54 +1 x65 +1 x76 +1 x87 +1 x98 +1 x109 +1 x120 +1 x131 +1 x142 +1 x153 +1 x164 +1 x175 +1 x186 +1 x197 +1 x208 +1 x219 +1 x230 +1 x241 +1 x252 >= 9;
-1 x54 -1 x65 -1 x76 -1 x87 -1 x98 -1 x109 -1 x120 -1 x131 -1 x142 -1 x153 -1 x164 -1 x175 -1 x186 -1 x197 -1 x208 -1 x219 -1 x230 -1 x241 -1 x252 >= -10;
+1 x55 +1 x66 +1 x77 +1 x88 +1 x99 +1 x110 +1 x121 +1 x132 +1 x143 +1 x154 +1 x165 +1 x176 +1 x187 +1 x198 +1 x209 +1 x220 +1 x231 +1 x242 +1 x253 >= 9;
-1 x55 -1 x66 -1 x77 -1 x88 -1 x99 -1 x110 -1 x121 -1 x132 -1 x143 -1 x154 -1 x165 -1 x176 -1 x187 -1 x198 -1 x209 -1 x220 -1 x231 -1 x242 -1 x253 >= -10;
+1 x56 +1 x67 +1 x78 +1 x89 +1 x100 +1 x111 +1 x122 +1 x133 +1 x144 +1 x155 +1 x166 +1 x177 +1 x188 +1 x199 +1 x210 +1 x221 +1 x232 +1 x243 +1 x254 >= 9;
-1 x56 -1 x67 -1 x78 -1 x89 -1 x100 -1 x111 -1 x122 -1 x133 -1 x144 -1 x155 -1 x166 -1 x177 -1 x188 -1 x199 -1 x210 -1 x221 -1 x232 -1 x243 -1 x254 >= -10;
+1 x57 +1 x68 +1 x79 +1 x90 +1 x101 +1 x112 +1 x123 +1 x134 +1 x145 +1 x156 +1 x167 +1 x178 +1 x189 +1 x200 +1 x211 +1 x222 +1 x233 +1 x244 +1 x255 >= 9;
-1 x57 -1 x68 -1 x79 -1 x90 -1 x101 -1 x112 -1 x123 -1 x134 -1 x145 -1 x156 -1 x167 -1 x178 -1 x189 -1 x200 -1 x211 -1 x222 -1 x233 -1 x244 -1 x255 >= -10;
+1 x58 +1 x69 +1 x80 +1 x91 +1 x102 +1 x113 +1 x124 +1 x135 +1 x146 +1 x157 +1 x168 +1 x179 +1 x190 +1 x201 +1 x212 +1 x223 +1 x234 +1 x245 +1 x256 >= 9;
-1 x58 -1 x69 -1 x80 -1 x91 -1 x102 -1 x113 -1 x124 -1 x135 -1 x146 -1 x157 -1 x168 -1 x179 -1 x190 -1 x201 -1 x212 -1 x223 -1 x234 -1 x245 -1 x256 >= -10;
+1 x59 +1 x70 +1 x81 +1 x92 +1 x103 +1 x114 +1 x125 +1 x136 +1 x147 +1 x158 +1 x169 +1 x180 +1 x191 +1 x202 +1 x213 +1 x224 +1 x235 +1 x246 +1 x257 >= 9;
-1 x59 -1 x70 -1 x81 -1 x92 -1 x103 -1 x114 -1 x125 -1 x136 -1 x147 -1 x158 -1 x169 -1 x180 -1 x191 -1 x202 -1 x213 -1 x224 -1 x235 -1 x246 -1 x257 >= -10;
+1 x60 +1 x71 +1 x82 +1 x93 +1 x104 +1 x115 +1 x126 +1 x137 +1 x148 +1 x159 +1 x170 +1 x181 +1 x192 +1 x203 +1 x214 +1 x225 +1 x236 +1 x247 +1 x258 >= 9;
-1 x60 -1 x71 -1 x82 -1 x93 -1 x104 -1 x115 -1 x126 -1 x137 -1 x148 -1 x159 -1 x170 -1 x181 -1 x192 -1 x203 -1 x214 -1 x225 -1 x236 -1 x247 -1 x258 >= -10;
+1 x61 +1 x72 +1 x83 +1 x94 +1 x105 +1 x116 +1 x127 +1 x138 +1 x149 +1 x160 +1 x171 +1 x182 +1 x193 +1 x204 +1 x215 +1 x226 +1 x237 +1 x248 +1 x259 >= 9;
-1 x61 -1 x72 -1 x83 -1 x94 -1 x105 -1 x116 -1 x127 -1 x138 -1 x149 -1 x160 -1 x171 -1 x182 -1 x193 -1 x204 -1 x215 -1 x226 -1 x237 -1 x248 -1 x259 >= -10;
+1 x62 +1 x73 +1 x84 +1 x95 +1 x106 +1 x117 +1 x128 +1 x139 +1 x150 +1 x161 +1 x172 +1 x183 +1 x194 +1 x205 +1 x216 +1 x227 +1 x238 +1 x249 +1 x260 >= 9;
-1 x62 -1 x73 -1 x84 -1 x95 -1 x106 -1 x117 -1 x128 -1 x139 -1 x150 -1 x161 -1 x172 -1 x183 -1 x194 -1 x205 -1 x216 -1 x227 -1 x238 -1 x249 -1 x260 >= -10;
+1 x63 +1 x74 +1 x85 +1 x96 +1 x107 +1 x118 +1 x129 +1 x140 +1 x151 +1 x162 +1 x173 +1 x184 +1 x195 +1 x206 +1 x217 +1 x228 +1 x239 +1 x250 +1 x261 >= 9;
-1 x63 -1 x74 -1 x85 -1 x96 -1 x107 -1 x118 -1 x129 -1 x140 -1 x151 -1 x162 -1 x173 -1 x184 -1 x195 -1 x206 -1 x217 -1 x228 -1 x239 -1 x250 -1 x261 >= -10;
+1 x64 +1 x75 +1 x86 +1 x97 +1 x108 +1 x119 +1 x130 +1 x141 +1 x152 +1 x163 +1 x174 +1 x185 +1 x196 +1 x207 +1 x218 +1 x229 +1 x240 +1 x251 +1 x262 >= 9;
-1 x64 -1 x75 -1 x86 -1 x97 -1 x108 -1 x119 -1 x130 -1 x141 -1 x152 -1 x163 -1 x174 -1 x185 -1 x196 -1 x207 -1 x218 -1 x229 -1 x240 -1 x251 -1 x262 >= -10;
+1 x65 +1 x76 +1 x87 +1 x98 +1 x109 +1 x120 +1 x131 +1 x142 +1 x153 +1 x164 +1 x175 +1 x186 +1 x197 +1 x208 +1 x219 +1 x230 +1 x241 +1 x252 +1 x263 >= 9;
-1 x65 -1 x76 -1 x87 -1 x98 -1 x109 -1 x120 -1 x131 -1 x142 -1 x153 -1 x164 -1 x175 -1 x186 -1 x197 -1 x208 -1 x219 -1 x230 -1 x241 -1 x252 -1 x263 >= -10;
+1 x66 +1 x77 +1 x88 +1 x99 +1 x110 +1 x121 +1 x132 +1 x143 +1 x154 +1 x165 +1 x176 +1 x187 +1 x198 +1 x209 +1 x220 +1 x231 +1 x242 +1 x253 +1 x264 >= 9;
-1 x66 -1 x77 -1 x88 -1 x99 -1 x110 -1 x121 -1 x132 -1 x143 -1 x154 -1 x165 -1 x176 -1 x187 -1 x198 -1 x209 -1 x220 -1 x231 -1 x242 -1 x253 -1 x264 >= -10;
+1 x67 +1 x78 +1 x89 +1 x100 +1 x111 +1 x122 +1 x133 +1 x144 +1 x155 +1 x166 +1 x177 +1 x188 +1 x199 +1 x210 +1 x221 +1 x232 +1 x243 +1 x254 +1 x265 >= 9;
-1 x67 -1 x78 -1 x89 -1 x100 -1 x111 -1 x122 -1 x133 -1 x144 -1 x155 -1 x166 -1 x177 -1 x188 -1 x199 -1 x210 -1 x221 -1 x232 -1 x243 -1 x254 -1 x265 >= -10;
+1 x68 +1 x79 +1 x90 +1 x101 +1 x112 +1 x123 +1 x134 +1 x145 +1 x156 +1 x167 +1 x178 +1 x189 +1 x200 +1 x211 +1 x222 +1 x233 +1 x244 +1 x255 +1 x266 >= 9;
-1 x68 -1 x79 -1 x90 -1 x101 -1 x112 -1 x123 -1 x134 -1 x145 -1 x156 -1 x167 -1 x178 -1 x189 -1 x200 -1 x211 -1 x222 -1 x233 -1 x244 -1 x255 -1 x266 >= -10;
+1 x69 +1 x80 +1 x91 +1 x102 +1 x113 +1 x124 +1 x135 +1 x146 +1 x157 +1 x168 +1 x179 +1 x190 +1 x201 +1 x212 +1 x223 +1 x234 +1 x245 +1 x256 +1 x267 >= 9;
-1 x69 -1 x80 -1 x91 -1 x102 -1 x113 -1 x124 -1 x135 -1 x146 -1 x157 -1 x168 -1 x179 -1 x190 -1 x201 -1 x212 -1 x223 -1 x234 -1 x245 -1 x256 -1 x267 >= -10;
+1 x70 +1 x81 +1 x92 +1 x103 +1 x114 +1 x125 +1 x136 +1 x147 +1 x158 +1 x169 +1 x180 +1 x191 +1 x202 +1 x213 +1 x224 +1 x235 +1 x246 +1 x257 +1 x268 >= 9;
-1 x70 -1 x81 -1 x92 -1 x103 -1 x114 -1 x125 -1 x136 -1 x147 -1 x158 -1 x169 -1 x180 -1 x191 -1 x202 -1 x213 -1 x224 -1 x235 -1 x246 -1 x257 -1 x268 >= -10;
+1 x71 +1 x82 +1 x93 +1 x104 +1 x115 +1 x126 +1 x137 +1 x148 +1 x159 +1 x170 +1 x181 +1 x192 +1 x203 +1 x214 +1 x225 +1 x236 +1 x247 +1 x258 +1 x269 >= 9;
-1 x71 -1 x82 -1 x93 -1 x104 -1 x115 -1 x126 -1 x137 -1 x148 -1 x159 -1 x170 -1 x181 -1 x192 -1 x203 -1 x214 -1 x225 -1 x236 -1 x247 -1 x258 -1 x269 >= -10;
+1 x72 +1 x83 +1 x94 +1 x105 +1 x116 +1 x127 +1 x138 +1 x149 +1 x160 +1 x171 +1 x182 +1 x193 +1 x204 +1 x215 +1 x226 +1 x237 +1 x248 +1 x259 +1 x270 >= 9;
-1 x72 -1 x83 -1 x94 -1 x105 -1 x116 -1 x127 -1 x138 -1 x149 -1 x160 -1 x171 -1 x182 -1 x193 -1 x204 -1 x215 -1 x226 -1 x237 -1 x248 -1 x259 -1 x270 >= -10;
+1 x73 +1 x84 +1 x95 +1 x106 +1 x117 +1 x128 +1 x139 +1 x150 +1 x161 +1 x172 +1 x183 +1 x194 +1 x205 +1 x216 +1 x227 +1 x238 +1 x249 +1 x260 +1 x271 >= 9;
-1 x73 -1 x84 -1 x95 -1 x106 -1 x117 -1 x128 -1 x139 -1 x150 -1 x161 -1 x172 -1 x183 -1 x194 -1 x205 -1 x216 -1 x227 -1 x238 -1 x249 -1 x260 -1 x271 >= -10;
+1 x74 +1 x85 +1 x96 +1 x107 +1 x118 +1 x129 +1 x140 +1 x151 +1 x162 +1 x173 +1 x184 +1 x195 +1 x206 +1 x217 +1 x228 +1 x239 +1 x250 +1 x261 +1 x272 >= 9;
-1 x74 -1 x85 -1 x96 -1 x107 -1 x118 -1 x129 -1 x140 -1 x151 -1 x162 -1 x173 -1 x184 -1 x195 -1 x206 -1 x217 -1 x228 -1 x239 -1 x250 -1 x261 -1 x272 >= -10;
+1 x75 +1 x86 +1 x97 +1 x108 +1 x119 +1 x130 +1 x141 +1 x152 +1 x163 +1 x174 +1 x185 +1 x196 +1 x207 +1 x218 +1 x229 +1 x240 +1 x251 +1 x262 +1 x273 >= 9;
-1 x75 -1 x86 -1 x97 -1 x108 -1 x119 -1 x130 -1 x141 -1 x152 -1 x163 -1 x174 -1 x185 -1 x196 -1 x207 -1 x218 -1 x229 -1 x240 -1 x251 -1 x262 -1 x273 >= -10;
+1 x76 +1 x87 +1 x98 +1 x109 +1 x120 +1 x131 +1 x142 +1 x153 +1 x164 +1 x175 +1 x186 +1 x197 +1 x208 +1 x219 +1 x230 +1 x241 +1 x252 +1 x263 +1 x274 >= 9;
-1 x76 -1 x87 -1 x98 -1 x109 -1 x120 -1 x131 -1 x142 -1 x153 -1 x164 -1 x175 -1 x186 -1 x197 -1 x208 -1 x219 -1 x230 -1 x241 -1 x252 -1 x263 -1 x274 >= -10;
+1 x77 +1 x88 +1 x99 +1 x110 +1 x121 +1 x132 +1 x143 +1 x154 +1 x165 +1 x176 +1 x187 +1 x198 +1 x209 +1 x220 +1 x231 +1 x242 +1 x253 +1 x264 +1 x275 >= 9;
-1 x77 -1 x88 -1 x99 -1 x110 -1 x121 -1 x132 -1 x143 -1 x154 -1 x165 -1 x176 -1 x187 -1 x198 -1 x209 -1 x220 -1 x231 -1 x242 -1 x253 -1 x264 -1 x275 >= -10;
+1 x78 +1 x89 +1 x100 +1 x111 +1 x122 +1 x133 +1 x144 +1 x155 +1 x166 +1 x177 +1 x188 +1 x199 +1 x210 +1 x221 +1 x232 +1 x243 +1 x254 +1 x265 +1 x276 >= 9;
-1 x78 -1 x89 -1 x100 -1 x111 -1 x122 -1 x133 -1 x144 -1 x155 -1 x166 -1 x177 -1 x188 -1 x199 -1 x210 -1 x221 -1 x232 -1 x243 -1 x254 -1 x265 -1 x276 >= -10;
+1 x79 +1 x90 +1 x101 +1 x112 +1 x123 +1 x134 +1 x145 +1 x156 +1 x167 +1 x178 +1 x189 +1 x200 +1 x211 +1 x222 +1 x233 +1 x244 +1 x255 +1 x266 +1 x277 >= 9;
-1 x79 -1 x90 -1 x101 -1 x112 -1 x123 -1 x134 -1 x145 -1 x156 -1 x167 -1 x178 -1 x189 -1 x200 -1 x211 -1 x222 -1 x233 -1 x244 -1 x255 -1 x266 -1 x277 >= -10;
+1 x80 +1 x91 +1 x102 +1 x113 +1 x124 +1 x135 +1 x146 +1 x157 +1 x168 +1 x179 +1 x190 +1 x201 +1 x212 +1 x223 +1 x234 +1 x245 +1 x256 +1 x267 +1 x278 >= 9;
-1 x80 -1 x91 -1 x102 -1 x113 -1 x124 -1 x135 -1 x146 -1 x157 -1 x168 -1 x179 -1 x190 -1 x201 -1 x212 -1 x223 -1 x234 -1 x245 -1 x256 -1 x267 -1 x278 >= -10;
+1 x81 +1 x92 +1 x103 +1 x114 +1 x125 +1 x136 +1 x147 +1 x158 +1 x169 +1 x180 +1 x191 +1 x202 +1 x213 +1 x224 +1 x235 +1 x246 +1 x257 +1 x268 +1 x279 >= 9;
-1 x81 -1 x92 -1 x103 -1 x114 -1 x125 -1 x136 -1 x147 -1 x158 -1 x169 -1 x180 -1 x191 -1 x202 -1 x213 -1 x224 -1 x235 -1 x246 -1 x257 -1 x268 -1 x279 >= -10;
+1 x82 +1 x93 +1 x104 +1 x115 +1 x126 +1 x137 +1 x148 +1 x159 +1 x170 +1 x181 +1 x192 +1 x203 +1 x214 +1 x225 +1 x236 +1 x247 +1 x258 +1 x269 +1 x280 >= 9;
-1 x82 -1 x93 -1 x104 -1 x115 -1 x126 -1 x137 -1 x148 -1 x159 -1 x170 -1 x181 -1 x192 -1 x203 -1 x214 -1 x225 -1 x236 -1 x247 -1 x258 -1 x269 -1 x280 >= -10;
+1 x83 +1 x94 +1 x105 +1 x116 +1 x127 +1 x138 +1 x149 +1 x160 +1 x171 +1 x182 +1 x193 +1 x204 +1 x215 +1 x226 +1 x237 +1 x248 +1 x259 +1 x270 +1 x281 >= 9;
-1 x83 -1 x94 -1 x105 -1 x116 -1 x127 -1 x138 -1 x149 -1 x160 -1 x171 -1 x182 -1 x193 -1 x204 -1 x215 -1 x226 -1 x237 -1 x248 -1 x259 -1 x270 -1 x281 >= -10;
+1 x84 +1 x95 +1 x106 +1 x117 +1 x128 +1 x139 +1 x150 +1 x161 +1 x172 +1 x183 +1 x194 +1 x205 +1 x216 +1 x227 +1 x238 +1 x249 +1 x260 +1 x271 +1 x282 >= 9;
-1 x84 -1 x95 -1 x106 -1 x117 -1 x128 -1 x139 -1 x150 -1 x161 -1 x172 -1 x183 -1 x194 -1 x205 -1 x216 -1 x227 -1 x238 -1 x249 -1 x260 -1 x271 -1 x282 >= -10;
+1 x85 +1 x96 +1 x107 +1 x118 +1 x129 +1 x140 +1 x151 +1 x162 +1 x173 +1 x184 +1 x195 +1 x206 +1 x217 +1 x228 +1 x239 +1 x250 +1 x261 +1 x272 +1 x283 >= 9;
-1 x85 -1 x96 -1 x107 -1 x118 -1 x129 -1 x140 -1 x151 -1 x162 -1 x173 -1 x184 -1 x195 -1 x206 -1 x217 -1 x228 -1 x239 -1 x250 -1 x261 -1 x272 -1 x283 >= -10;
+1 x86 +1 x97 +1 x108 +1 x119 +1 x130 +1 x141 +1 x152 +1 x163 +1 x174 +1 x185 +1 x196 +1 x207 +1 x218 +1 x229 +1 x240 +1 x251 +1 x262 +1 x273 +1 x284 >= 9;
-1 x86 -1 x97 -1 x108 -1 x119 -1 x130 -1 x141 -1 x152 -1 x163 -1 x174 -1 x185 -1 x196 -1 x207 -1 x218 -1 x229 -1 x240 -1 x251 -1 x262 -1 x273 -1 x284 >= -10;
+1 x87 +1 x98 +1 x109 +1 x120 +1 x131 +1 x142 +1 x153 +1 x164 +1 x175 +1 x186 +1 x197 +1 x208 +1 x219 +1 x230 +1 x241 +1 x252 +1 x263 +1 x274 +1 x285 >= 9;
-1 x87 -1 x98 -1 x109 -1 x120 -1 x131 -1 x142 -1 x153 -1 x164 -1 x175 -1 x186 -1 x197 -1 x208 -1 x219 -1 x230 -1 x241 -1 x252 -1 x263 -1 x274 -1 x285 >= -10;
+1 x88 +1 x99 +1 x110 +1 x121 +1 x132 +1 x143 +1 x154 +1 x165 +1 x176 +1 x187 +1 x198 +1 x209 +1 x220 +1 x231 +1 x242 +1 x253 +1 x264 +1 x275 +1 x286 >= 9;
-1 x88 -1 x99 -1 x110 -1 x121 -1 x132 -1 x143 -1 x154 -1 x165 -1 x176 -1 x187 -1 x198 -1 x209 -1 x220 -1 x231 -1 x242 -1 x253 -1 x264 -1 x275 -1 x286 >= -10;
+1 x89 +1 x100 +1 x111 +1 x122 +1 x133 +1 x144 +1 x155 +1 x166 +1 x177 +1 x188 +1 x199 +1 x210 +1 x221 +1 x232 +1 x243 +1 x254 +1 x265 +1 x276 +1 x287 >= 9;
-1 x89 -1 x100 -1 x111 -1 x122 -1 x133 -1 x144 -1 x155 -1 x166 -1 x177 -1 x188 -1 x199 -1 x210 -1 x221 -1 x232 -1 x243 -1 x254 -1 x265 -1 x276 -1 x287 >= -10;
+1 x90 +1 x101 +1 x112 +1 x123 +1 x134 +1 x145 +1 x156 +1 x167 +1 x178 +1 x189 +1 x200 +1 x211 +1 x222 +1 x233 +1 x244 +1 x255 +1 x266 +1 x277 +1 x288 >= 9;
-1 x90 -1 x101 -1 x112 -1 x123 -1 x134 -1 x145 -1 x156 -1 x167 -1 x178 -1 x189 -1 x200 -1 x211 -1 x222 -1 x233 -1 x244 -1 x255 -1 x266 -1 x277 -1 x288 >= -10;
+1 x91 +1 x102 +1 x113 +1 x124 +1 x135 +1 x146 +1 x157 +1 x168 +1 x179 +1 x190 +1 x201 +1 x212 +1 x223 +1 x234 +1 x245 +1 x256 +1 x267 +1 x278 +1 x289 >= 9;
-1 x91 -1 x102 -1 x113 -1 x124 -1 x135 -1 x146 -1 x157 -1 x168 -1 x179 -1 x190 -1 x201 -1 x212 -1 x223 -1 x234 -1 x245 -1 x256 -1 x267 -1 x278 -1 x289 >= -10;
+1 x92 +1 x103 +1 x114 +1 x125 +1 x136 +1 x147 +1 x158 +1 x169 +1 x180 +1 x191 +1 x202 +1 x213 +1 x224 +1 x235 +1 x246 +1 x257 +1 x268 +1 x279 +1 x290 >= 9;
-1 x92 -1 x103 -1 x114 -1 x125 -1 x136 -1 x147 -1 x158 -1 x169 -1 x180 -1 x191 -1 x202 -1 x213 -1 x224 -1 x235 -1 x246 -1 x257 -1 x268 -1 x279 -1 x290 >= -10;
+1 x93 +1 x104 +1 x115 +1 x126 +1 x137 +1 x148 +1 x159 +1 x170 +1 x181 +1 x192 +1 x203 +1 x214 +1 x225 +1 x236 +1 x247 +1 x258 +1 x269 +1 x280 +1 x291 >= 9;
-1 x93 -1 x104 -1 x115 -1 x126 -1 x137 -1 x148 -1 x159 -1 x170 -1 x181 -1 x192 -1 x203 -1 x214 -1 x225 -1 x236 -1 x247 -1 x258 -1 x269 -1 x280 -1 x291 >= -10;
+1 x94 +1 x105 +1 x116 +1 x127 +1 x138 +1 x149 +1 x160 +1 x171 +1 x182 +1 x193 +1 x204 +1 x215 +1 x226 +1 x237 +1 x248 +1 x259 +1 x270 +1 x281 +1 x292 >= 9;
-1 x94 -1 x105 -1 x116 -1 x127 -1 x138 -1 x149 -1 x160 -1 x171 -1 x182 -1 x193 -1 x204 -1 x215 -1 x226 -1 x237 -1 x248 -1 x259 -1 x270 -1 x281 -1 x292 >= -10;
+1 x95 +1 x106 +1 x117 +1 x128 +1 x139 +1 x150 +1 x161 +1 x172 +1 x183 +1 x194 +1 x205 +1 x216 +1 x227 +1 x238 +1 x249 +1 x260 +1 x271 +1 x282 +1 x293 >= 9;
-1 x95 -1 x106 -1 x117 -1 x128 -1 x139 -1 x150 -1 x161 -1 x172 -1 x183 -1 x194 -1 x205 -1 x216 -1 x227 -1 x238 -1 x249 -1 x260 -1 x271 -1 x282 -1 x293 >= -10;
+1 x96 +1 x107 +1 x118 +1 x129 +1 x140 +1 x151 +1 x162 +1 x173 +1 x184 +1 x195 +1 x206 +1 x217 +1 x228 +1 x239 +1 x250 +1 x261 +1 x272 +1 x283 +1 x294 >= 9;
-1 x96 -1 x107 -1 x118 -1 x129 -1 x140 -1 x151 -1 x162 -1 x173 -1 x184 -1 x195 -1 x206 -1 x217 -1 x228 -1 x239 -1 x250 -1 x261 -1 x272 -1 x283 -1 x294 >= -10;
+1 x97 +1 x108 +1 x119 +1 x130 +1 x141 +1 x152 +1 x163 +1 x174 +1 x185 +1 x196 +1 x207 +1 x218 +1 x229 +1 x240 +1 x251 +1 x262 +1 x273 +1 x284 +1 x295 >= 9;
-1 x97 -1 x108 -1 x119 -1 x130 -1 x141 -1 x152 -1 x163 -1 x174 -1 x185 -1 x196 -1 x207 -1 x218 -1 x229 -1 x240 -1 x251 -1 x262 -1 x273 -1 x284 -1 x295 >= -10;
+1 x98 +1 x109 +1 x120 +1 x131 +1 x142 +1 x153 +1 x164 +1 x175 +1 x186 +1 x197 +1 x208 +1 x219 +1 x230 +1 x241 +1 x252 +1 x263 +1 x274 +1 x285 +1 x296 >= 9;
-1 x98 -1 x109 -1 x120 -1 x131 -1 x142 -1 x153 -1 x164 -1 x175 -1 x186 -1 x197 -1 x208 -1 x219 -1 x230 -1 x241 -1 x252 -1 x263 -1 x274 -1 x285 -1 x296 >= -10;
+1 x99 +1 x110 +1 x121 +1 x132 +1 x143 +1 x154 +1 x165 +1 x176 +1 x187 +1 x198 +1 x209 +1 x220 +1 x231 +1 x242 +1 x253 +1 x264 +1 x275 +1 x286 +1 x297 >= 9;
-1 x99 -1 x110 -1 x121 -1 x132 -1 x143 -1 x154 -1 x165 -1 x176 -1 x187 -1 x198 -1 x209 -1 x220 -1 x231 -1 x242 -1 x253 -1 x264 -1 x275 -1 x286 -1 x297 >= -10;
+1 x100 +1 x111 +1 x122 +1 x133 +1 x144 +1 x155 +1 x166 +1 x177 +1 x188 +1 x199 +1 x210 +1 x221 +1 x232 +1 x243 +1 x254 +1 x265 +1 x276 +1 x287 +1 x298 >= 9;
-1 x100 -1 x111 -1 x122 -1 x133 -1 x144 -1 x155 -1 x166 -1 x177 -1 x188 -1 x199 -1 x210 -1 x221 -1 x232 -1 x243 -1 x254 -1 x265 -1 x276 -1 x287 -1 x298 >= -10;
+1 x101 +1 x112 +1 x123 +1 x134 +1 x145 +1 x156 +1 x167 +1 x178 +1 x189 +1 x200 +1 x211 +1 x222 +1 x233 +1 x244 +1 x255 +1 x266 +1 x277 +1 x288 +1 x299 >= 9;
-1 x101 -1 x112 -1 x123 -1 x134 -1 x145 -1 x156 -1 x167 -1 x178 -1 x189 -1 x200 -1 x211 -1 x222 -1 x233 -1 x244 -1 x255 -1 x266 -1 x277 -1 x288 -1 x299 >= -10;
+1 x102 +1 x113 +1 x124 +1 x135 +1 x146 +1 x157 +1 x168 +1 x179 +1 x190 +1 x201 +1 x212 +1 x223 +1 x234 +1 x245 +1 x256 +1 x267 +1 x278 +1 x289 +1 x300 >= 9;
-1 x102 -1 x113 -1 x124 -1 x135 -1 x146 -1 x157 -1 x168 -1 x179 -1 x190 -1 x201 -1 x212 -1 x223 -1 x234 -1 x245 -1 x256 -1 x267 -1 x278 -1 x289 -1 x300 >= -10;
+1 x103 +1 x114 +1 x125 +1 x136 +1 x147 +1 x158 +1 x169 +1 x180 +1 x191 +1 x202 +1 x213 +1 x224 +1 x235 +1 x246 +1 x257 +1 x268 +1 x279 +1 x290 +1 x301 >= 9;
-1 x103 -1 x114 -1 x125 -1 x136 -1 x147 -1 x158 -1 x169 -1 x180 -1 x191 -1 x202 -1 x213 -1 x224 -1 x235 -1 x246 -1 x257 -1 x268 -1 x279 -1 x290 -1 x301 >= -10;
+1 x104 +1 x115 +1 x126 +1 x137 +1 x148 +1 x159 +1 x170 +1 x181 +1 x192 +1 x203 +1 x214 +1 x225 +1 x236 +1 x247 +1 x258 +1 x269 +1 x280 +1 x291 +1 x302 >= 9;
-1 x104 -1 x115 -1 x126 -1 x137 -1 x148 -1 x159 -1 x170 -1 x181 -1 x192 -1 x203 -1 x214 -1 x225 -1 x236 -1 x247 -1 x258 -1 x269 -1 x280 -1 x291 -1 x302 >= -10;
+1 x105 +1 x116 +1 x127 +1 x138 +1 x149 +1 x160 +1 x171 +1 x182 +1 x193 +1 x204 +1 x215 +1 x226 +1 x237 +1 x248 +1 x259 +1 x270 +1 x281 +1 x292 +1 x303 >= 9;
-1 x105 -1 x116 -1 x127 -1 x138 -1 x149 -1 x160 -1 x171 -1 x182 -1 x193 -1 x204 -1 x215 -1 x226 -1 x237 -1 x248 -1 x259 -1 x270 -1 x281 -1 x292 -1 x303 >= -10;
+1 x106 +1 x117 +1 x128 +1 x139 +1 x150 +1 x161 +1 x172 +1 x183 +1 x194 +1 x205 +1 x216 +1 x227 +1 x238 +1 x249 +1 x260 +1 x271 +1 x282 +1 x293 +1 x304 >= 9;
-1 x106 -1 x117 -1 x128 -1 x139 -1 x150 -1 x161 -1 x172 -1 x183 -1 x194 -1 x205 -1 x216 -1 x227 -1 x238 -1 x249 -1 x260 -1 x271 -1 x282 -1 x293 -1 x304 >= -10;
+1 x107 +1 x118 +1 x129 +1 x140 +1 x151 +1 x162 +1 x173 +1 x184 +1 x195 +1 x206 +1 x217 +1 x228 +1 x239 +1 x250 +1 x261 +1 x272 +1 x283 +1 x294 +1 x305 >= 9;
-1 x107 -1 x118 -1 x129 -1 x140 -1 x151 -1 x162 -1 x173 -1 x184 -1 x195 -1 x206 -1 x217 -1 x228 -1 x239 -1 x250 -1 x261 -1 x272 -1 x283 -1 x294 -1 x305 >= -10;
+1 x108 +1 x119 +1 x130 +1 x141 +1 x152 +1 x163 +1 x174 +1 x185 +1 x196 +1 x207 +1 x218 +1 x229 +1 x240 +1 x251 +1 x262 +1 x273 +1 x284 +1 x295 +1 x306 >= 9;
-1 x108 -1 x119 -1 x130 -1 x141 -1 x152 -1 x163 -1 x174 -1 x185 -1 x196 -1 x207 -1 x218 -1 x229 -1 x240 -1 x251 -1 x262 -1 x273 -1 x284 -1 x295 -1 x306 >= -10;
+1 x109 +1 x120 +1 x131 +1 x142 +1 x153 +1 x164 +1 x175 +1 x186 +1 x197 +1 x208 +1 x219 +1 x230 +1 x241 +1 x252 +1 x263 +1 x274 +1 x285 +1 x296 +1 x307 >= 9;
-1 x109 -1 x120 -1 x131 -1 x142 -1 x153 -1 x164 -1 x175 -1 x186 -1 x197 -1 x208 -1 x219 -1 x230 -1 x241 -1 x252 -1 x263 -1 x274 -1 x285 -1 x296 -1 x307 >= -10;
+1 x110 +1 x121 +1 x132 +1 x143 +1 x154 +1 x165 +1 x176 +1 x187 +1 x198 +1 x209 +1 x220 +1 x231 +1 x242 +1 x253 +1 x264 +1 x275 +1 x286 +1 x297 +1 x308 >= 9;
-1 x110 -1 x121 -1 x132 -1 x143 -1 x154 -1 x165 -1 x176 -1 x187 -1 x198 -1 x209 -1 x220 -1 x231 -1 x242 -1 x253 -1 x264 -1 x275 -1 x286 -1 x297 -1 x308 >= -10;
+1 x111 +1 x122 +1 x133 +1 x144 +1 x155 +1 x166 +1 x177 +1 x188 +1 x199 +1 x210 +1 x221 +1 x232 +1 x243 +1 x254 +1 x265 +1 x276 +1 x287 +1 x298 +1 x309 >= 9;
-1 x111 -1 x122 -1 x133 -1 x144 -1 x155 -1 x166 -1 x177 -1 x188 -1 x199 -1 x210 -1 x221 -1 x232 -1 x243 -1 x254 -1 x265 -1 x276 -1 x287 -1 x298 -1 x309 >= -10;
+1 x112 +1 x123 +1 x134 +1 x145 +1 x156 +1 x167 +1 x178 +1 x189 +1 x200 +1 x211 +1 x222 +1 x233 +1 x244 +1 x255 +1 x266 +1 x277 +1 x288 +1 x299 +1 x310 >= 9;
-1 x112 -1 x123 -1 x134 -1 x145 -1 x156 -1 x167 -1 x178 -1 x189 -1 x200 -1 x211 -1 x222 -1 x233 -1 x244 -1 x255 -1 x266 -1 x277 -1 x288 -1 x299 -1 x310 >= -10;
+1 x113 +1 x124 +1 x135 +1 x146 +1 x157 +1 x168 +1 x179 +1 x190 +1 x201 +1 x212 +1 x223 +1 x234 +1 x245 +1 x256 +1 x267 +1 x278 +1 x289 +1 x300 +1 x311 >= 9;
-1 x113 -1 x124 -1 x135 -1 x146 -1 x157 -1 x168 -1 x179 -1 x190 -1 x201 -1 x212 -1 x223 -1 x234 -1 x245 -1 x256 -1 x267 -1 x278 -1 x289 -1 x300 -1 x311 >= -10;
+1 x114 +1 x125 +1 x136 +1 x147 +1 x158 +1 x169 +1 x180 +1 x191 +1 x202 +1 x213 +1 x224 +1 x235 +1 x246 +1 x257 +1 x268 +1 x279 +1 x290 +1 x301 +1 x312 >= 9;
-1 x114 -1 x125 -1 x136 -1 x147 -1 x158 -1 x169 -1 x180 -1 x191 -1 x202 -1 x213 -1 x224 -1 x235 -1 x246 -1 x257 -1 x268 -1 x279 -1 x290 -1 x301 -1 x312 >= -10;
+1 x115 +1 x126 +1 x137 +1 x148 +1 x159 +1 x170 +1 x181 +1 x192 +1 x203 +1 x214 +1 x225 +1 x236 +1 x247 +1 x258 +1 x269 +1 x280 +1 x291 +1 x302 +1 x313 >= 9;
-1 x115 -1 x126 -1 x137 -1 x148 -1 x159 -1 x170 -1 x181 -1 x192 -1 x203 -1 x214 -1 x225 -1 x236 -1 x247 -1 x258 -1 x269 -1 x280 -1 x291 -1 x302 -1 x313 >= -10;
+1 x116 +1 x127 +1 x138 +1 x149 +1 x160 +1 x171 +1 x182 +1 x193 +1 x204 +1 x215 +1 x226 +1 x237 +1 x248 +1 x259 +1 x270 +1 x281 +1 x292 +1 x303 +1 x314 >= 9;
-1 x116 -1 x127 -1 x138 -1 x149 -1 x160 -1 x171 -1 x182 -1 x193 -1 x204 -1 x215 -1 x226 -1 x237 -1 x248 -1 x259 -1 x270 -1 x281 -1 x292 -1 x303 -1 x314 >= -10;
+1 x117 +1 x128 +1 x139 +1 x150 +1 x161 +1 x172 +1 x183 +1 x194 +1 x205 +1 x216 +1 x227 +1 x238 +1 x249 +1 x260 +1 x271 +1 x282 +1 x293 +1 x304 +1 x315 >= 9;
-1 x117 -1 x128 -1 x139 -1 x150 -1 x161 -1 x172 -1 x183 -1 x194 -1 x205 -1 x216 -1 x227 -1 x238 -1 x249 -1 x260 -1 x271 -1 x282 -1 x293 -1 x304 -1 x315 >= -10;
+1 x118 +1 x129 +1 x140 +1 x151 +1 x162 +1 x173 +1 x184 +1 x195 +1 x206 +1 x217 +1 x228 +1 x239 +1 x250 +1 x261 +1 x272 +1 x283 +1 x294 +1 x305 +1 x316 >= 9;
-1 x118 -1 x129 -1 x140 -1 x151 -1 x162 -1 x173 -1 x184 -1 x195 -1 x206 -1 x217 -1 x228 -1 x239 -1 x250 -1 x261 -1 x272 -1 x283 -1 x294 -1 x305 -1 x316 >= -10;
+1 x119 +1 x130 +1 x141 +1 x152 +1 x163 +1 x174 +1 x185 +1 x196 +1 x207 +1 x218 +1 x229 +1 x240 +1 x251 +1 x262 +1 x273 +1 x284 +1 x295 +1 x306 +1 x317 >= 9;
-1 x119 -1 x130 -1 x141 -1 x152 -1 x163 -1 x174 -1 x185 -1 x196 -1 x207 -1 x218 -1 x229 -1 x240 -1 x251 -1 x262 -1 x273 -1 x284 -1 x295 -1 x306 -1 x317 >= -10;
+1 x120 +1 x131 +1 x142 +1 x153 +1 x164 +1 x175 +1 x186 +1 x197 +1 x208 +1 x219 +1 x230 +1 x241 +1 x252 +1 x263 +1 x274 +1 x285 +1 x296 +1 x307 +1 x318 >= 9;
-1 x120 -1 x131 -1 x142 -1 x153 -1 x164 -1 x175 -1 x186 -1 x197 -1 x208 -1 x219 -1 x230 -1 x241 -1 x252 -1 x263 -1 x274 -1 x285 -1 x296 -1 x307 -1 x318 >= -10;
+1 x121 +1 x132 +1 x143 +1 x154 +1 x165 +1 x176 +1 x187 +1 x198 +1 x209 +1 x220 +1 x231 +1 x242 +1 x253 +1 x264 +1 x275 +1 x286 +1 x297 +1 x308 +1 x319 >= 9;
-1 x121 -1 x132 -1 x143 -1 x154 -1 x165 -1 x176 -1 x187 -1 x198 -1 x209 -1 x220 -1 x231 -1 x242 -1 x253 -1 x264 -1 x275 -1 x286 -1 x297 -1 x308 -1 x319 >= -10;
+1 x122 +1 x133 +1 x144 +1 x155 +1 x166 +1 x177 +1 x188 +1 x199 +1 x210 +1 x221 +1 x232 +1 x243 +1 x254 +1 x265 +1 x276 +1 x287 +1 x298 +1 x309 +1 x320 >= 9;
-1 x122 -1 x133 -1 x144 -1 x155 -1 x166 -1 x177 -1 x188 -1 x199 -1 x210 -1 x221 -1 x232 -1 x243 -1 x254 -1 x265 -1 x276 -1 x287 -1 x298 -1 x309 -1 x320 >= -10;
+1 x123 +1 x134 +1 x145 +1 x156 +1 x167 +1 x178 +1 x189 +1 x200 +1 x211 +1 x222 +1 x233 +1 x244 +1 x255 +1 x266 +1 x277 +1 x288 +1 x299 +1 x310 +1 x321 >= 9;
-1 x123 -1 x134 -1 x145 -1 x156 -1 x167 -1 x178 -1 x189 -1 x200 -1 x211 -1 x222 -1 x233 -1 x244 -1 x255 -1 x266 -1 x277 -1 x288 -1 x299 -1 x310 -1 x321 >= -10;
+1 x124 +1 x135 +1 x146 +1 x157 +1 x168 +1 x179 +1 x190 +1 x201 +1 x212 +1 x223 +1 x234 +1 x245 +1 x256 +1 x267 +1 x278 +1 x289 +1 x300 +1 x311 +1 x322 >= 9;
-1 x124 -1 x135 -1 x146 -1 x157 -1 x168 -1 x179 -1 x190 -1 x201 -1 x212 -1 x223 -1 x234 -1 x245 -1 x256 -1 x267 -1 x278 -1 x289 -1 x300 -1 x311 -1 x322 >= -10;
+1 x125 +1 x136 +1 x147 +1 x158 +1 x169 +1 x180 +1 x191 +1 x202 +1 x213 +1 x224 +1 x235 +1 x246 +1 x257 +1 x268 +1 x279 +1 x290 +1 x301 +1 x312 +1 x323 >= 9;
-1 x125 -1 x136 -1 x147 -1 x158 -1 x169 -1 x180 -1 x191 -1 x202 -1 x213 -1 x224 -1 x235 -1 x246 -1 x257 -1 x268 -1 x279 -1 x290 -1 x301 -1 x312 -1 x323 >= -10;
+1 x126 +1 x137 +1 x148 +1 x159 +1 x170 +1 x181 +1 x192 +1 x203 +1 x214 +1 x225 +1 x236 +1 x247 +1 x258 +1 x269 +1 x280 +1 x291 +1 x302 +1 x313 +1 x324 >= 9;
-1 x126 -1 x137 -1 x148 -1 x159 -1 x170 -1 x181 -1 x192 -1 x203 -1 x214 -1 x225 -1 x236 -1 x247 -1 x258 -1 x269 -1 x280 -1 x291 -1 x302 -1 x313 -1 x324 >= -10;
+1 x127 +1 x138 +1 x149 +1 x160 +1 x171 +1 x182 +1 x193 +1 x204 +1 x215 +1 x226 +1 x237 +1 x248 +1 x259 +1 x270 +1 x281 +1 x292 +1 x303 +1 x314 +1 x325 >= 9;
-1 x127 -1 x138 -1 x149 -1 x160 -1 x171 -1 x182 -1 x193 -1 x204 -1 x215 -1 x226 -1 x237 -1 x248 -1 x259 -1 x270 -1 x281 -1 x292 -1 x303 -1 x314 -1 x325 >= -10;
+1 x128 +1 x139 +1 x150 +1 x161 +1 x172 +1 x183 +1 x194 +1 x205 +1 x216 +1 x227 +1 x238 +1 x249 +1 x260 +1 x271 +1 x282 +1 x293 +1 x304 +1 x315 +1 x326 >= 9;
-1 x128 -1 x139 -1 x150 -1 x161 -1 x172 -1 x183 -1 x194 -1 x205 -1 x216 -1 x227 -1 x238 -1 x249 -1 x260 -1 x271 -1 x282 -1 x293 -1 x304 -1 x315 -1 x326 >= -10;
+1 x129 +1 x140 +1 x151 +1 x162 +1 x173 +1 x184 +1 x195 +1 x206 +1 x217 +1 x228 +1 x239 +1 x250 +1 x261 +1 x272 +1 x283 +1 x294 +1 x305 +1 x316 +1 x327 >= 9;
-1 x129 -1 x140 -1 x151 -1 x162 -1 x173 -1 x184 -1 x195 -1 x206 -1 x217 -1 x228 -1 x239 -1 x250 -1 x261 -1 x272 -1 x283 -1 x294 -1 x305 -1 x316 -1 x327 >= -10;
+1 x130 +1 x141 +1 x152 +1 x163 +1 x174 +1 x185 +1 x196 +1 x207 +1 x218 +1 x229 +1 x240 +1 x251 +1 x262 +1 x273 +1 x284 +1 x295 +1 x306 +1 x317 +1 x328 >= 9;
-1 x130 -1 x141 -1 x152 -1 x163 -1 x174 -1 x185 -1 x196 -1 x207 -1 x218 -1 x229 -1 x240 -1 x251 -1 x262 -1 x273 -1 x284 -1 x295 -1 x306 -1 x317 -1 x328 >= -10;
+1 x131 +1 x142 +1 x153 +1 x164 +1 x175 +1 x186 +1 x197 +1 x208 +1 x219 +1 x230 +1 x241 +1 x252 +1 x263 +1 x274 +1 x285 +1 x296 +1 x307 +1 x318 +1 x329 >= 9;
-1 x131 -1 x142 -1 x153 -1 x164 -1 x175 -1 x186 -1 x197 -1 x208 -1 x219 -1 x230 -1 x241 -1 x252 -1 x263 -1 x274 -1 x285 -1 x296 -1 x307 -1 x318 -1 x329 >= -10;
+1 x132 +1 x143 +1 x154 +1 x165 +1 x176 +1 x187 +1 x198 +1 x209 +1 x220 +1 x231 +1 x242 +1 x253 +1 x264 +1 x275 +1 x286 +1 x297 +1 x308 +1 x319 +1 x330 >= 9;
-1 x132 -1 x143 -1 x154 -1 x165 -1 x176 -1 x187 -1 x198 -1 x209 -1 x220 -1 x231 -1 x242 -1 x253 -1 x264 -1 x275 -1 x286 -1 x297 -1 x308 -1 x319 -1 x330 >= -10;
+1 x133 +1 x144 +1 x155 +1 x166 +1 x177 +1 x188 +1 x199 +1 x210 +1 x221 +1 x232 +1 x243 +1 x254 +1 x265 +1 x276 +1 x287 +1 x298 +1 x309 +1 x320 +1 x331 >= 9;
-1 x133 -1 x144 -1 x155 -1 x166 -1 x177 -1 x188 -1 x199 -1 x210 -1 x221 -1 x232 -1 x243 -1 x254 -1 x265 -1 x276 -1 x287 -1 x298 -1 x309 -1 x320 -1 x331 >= -10;
+1 x134 +1 x145 +1 x156 +1 x167 +1 x178 +1 x189 +1 x200 +1 x211 +1 x222 +1 x233 +1 x244 +1 x255 +1 x266 +1 x277 +1 x288 +1 x299 +1 x310 +1 x321 +1 x332 >= 9;
-1 x134 -1 x145 -1 x156 -1 x167 -1 x178 -1 x189 -1 x200 -1 x211 -1 x222 -1 x233 -1 x244 -1 x255 -1 x266 -1 x277 -1 x288 -1 x299 -1 x310 -1 x321 -1 x332 >= -10;
+1 x135 +1 x146 +1 x157 +1 x168 +1 x179 +1 x190 +1 x201 +1 x212 +1 x223 +1 x234 +1 x245 +1 x256 +1 x267 +1 x278 +1 x289 +1 x300 +1 x311 +1 x322 +1 x333 >= 9;
-1 x135 -1 x146 -1 x157 -1 x168 -1 x179 -1 x190 -1 x201 -1 x212 -1 x223 -1 x234 -1 x245 -1 x256 -1 x267 -1 x278 -1 x289 -1 x300 -1 x311 -1 x322 -1 x333 >= -10;
+1 x136 +1 x147 +1 x158 +1 x169 +1 x180 +1 x191 +1 x202 +1 x213 +1 x224 +1 x235 +1 x246 +1 x257 +1 x268 +1 x279 +1 x290 +1 x301 +1 x312 +1 x323 +1 x334 >= 9;
-1 x136 -1 x147 -1 x158 -1 x169 -1 x180 -1 x191 -1 x202 -1 x213 -1 x224 -1 x235 -1 x246 -1 x257 -1 x268 -1 x279 -1 x290 -1 x301 -1 x312 -1 x323 -1 x334 >= -10;
+1 x137 +1 x148 +1 x159 +1 x170 +1 x181 +1 x192 +1 x203 +1 x214 +1 x225 +1 x236 +1 x247 +1 x258 +1 x269 +1 x280 +1 x291 +1 x302 +1 x313 +1 x324 +1 x335 >= 9;
-1 x137 -1 x148 -1 x159 -1 x170 -1 x181 -1 x192 -1 x203 -1 x214 -1 x225 -1 x236 -1 x247 -1 x258 -1 x269 -1 x280 -1 x291 -1 x302 -1 x313 -1 x324 -1 x335 >= -10;
+1 x138 +1 x149 +1 x160 +1 x171 +1 x182 +1 x193 +1 x204 +1 x215 +1 x226 +1 x237 +1 x248 +1 x259 +1 x270 +1 x281 +1 x292 +1 x303 +1 x314 +1 x325 +1 x336 >= 9;
-1 x138 -1 x149 -1 x160 -1 x171 -1 x182 -1 x193 -1 x204 -1 x215 -1 x226 -1 x237 -1 x248 -1 x259 -1 x270 -1 x281 -1 x292 -1 x303 -1 x314 -1 x325 -1 x336 >= -10;
+1 x139 +1 x150 +1 x161 +1 x172 +1 x183 +1 x194 +1 x205 +1 x216 +1 x227 +1 x238 +1 x249 +1 x260 +1 x271 +1 x282 +1 x293 +1 x304 +1 x315 +1 x326 +1 x337 >= 9;
-1 x139 -1 x150 -1 x161 -1 x172 -1 x183 -1 x194 -1 x205 -1 x216 -1 x227 -1 x238 -1 x249 -1 x260 -1 x271 -1 x282 -1 x293 -1 x304 -1 x315 -1 x326 -1 x337 >= -10;
+1 x140 +1 x151 +1 x162 +1 x173 +1 x184 +1 x195 +1 x206 +1 x217 +1 x228 +1 x239 +1 x250 +1 x261 +1 x272 +1 x283 +1 x294 +1 x305 +1 x316 +1 x327 +1 x338 >= 9;
-1 x140 -1 x151 -1 x162 -1 x173 -1 x184 -1 x195 -1 x206 -1 x217 -1 x228 -1 x239 -1 x250 -1 x261 -1 x272 -1 x283 -1 x294 -1 x305 -1 x316 -1 x327 -1 x338 >= -10;
+1 x141 +1 x152 +1 x163 +1 x174 +1 x185 +1 x196 +1 x207 +1 x218 +1 x229 +1 x240 +1 x251 +1 x262 +1 x273 +1 x284 +1 x295 +1 x306 +1 x317 +1 x328 +1 x339 >= 9;
-1 x141 -1 x152 -1 x163 -1 x174 -1 x185 -1 x196 -1 x207 -1 x218 -1 x229 -1 x240 -1 x251 -1 x262 -1 x273 -1 x284 -1 x295 -1 x306 -1 x317 -1 x328 -1 x339 >= -10;
+1 x142 +1 x153 +1 x164 +1 x175 +1 x186 +1 x197 +1 x208 +1 x219 +1 x230 +1 x241 +1 x252 +1 x263 +1 x274 +1 x285 +1 x296 +1 x307 +1 x318 +1 x329 +1 x340 >= 9;
-1 x142 -1 x153 -1 x164 -1 x175 -1 x186 -1 x197 -1 x208 -1 x219 -1 x230 -1 x241 -1 x252 -1 x263 -1 x274 -1 x285 -1 x296 -1 x307 -1 x318 -1 x329 -1 x340 >= -10;
+1 x143 +1 x154 +1 x165 +1 x176 +1 x187 +1 x198 +1 x209 +1 x220 +1 x231 +1 x242 +1 x253 +1 x264 +1 x275 +1 x286 +1 x297 +1 x308 +1 x319 +1 x330 +1 x341 >= 9;
-1 x143 -1 x154 -1 x165 -1 x176 -1 x187 -1 x198 -1 x209 -1 x220 -1 x231 -1 x242 -1 x253 -1 x264 -1 x275 -1 x286 -1 x297 -1 x308 -1 x319 -1 x330 -1 x341 >= -10;
+1 x144 +1 x155 +1 x166 +1 x177 +1 x188 +1 x199 +1 x210 +1 x221 +1 x232 +1 x243 +1 x254 +1 x265 +1 x276 +1 x287 +1 x298 +1 x309 +1 x320 +1 x331 +1 x342 >= 9;
-1 x144 -1 x155 -1 x166 -1 x177 -1 x188 -1 x199 -1 x210 -1 x221 -1 x232 -1 x243 -1 x254 -1 x265 -1 x276 -1 x287 -1 x298 -1 x309 -1 x320 -1 x331 -1 x342 >= -10;
+1 x145 +1 x156 +1 x167 +1 x178 +1 x189 +1 x200 +1 x211 +1 x222 +1 x233 +1 x244 +1 x255 +1 x266 +1 x277 +1 x288 +1 x299 +1 x310 +1 x321 +1 x332 +1 x343 >= 9;
-1 x145 -1 x156 -1 x167 -1 x178 -1 x189 -1 x200 -1 x211 -1 x222 -1 x233 -1 x244 -1 x255 -1 x266 -1 x277 -1 x288 -1 x299 -1 x310 -1 x321 -1 x332 -1 x343 >= -10;
+1 x146 +1 x157 +1 x168 +1 x179 +1 x190 +1 x201 +1 x212 +1 x223 +1 x234 +1 x245 +1 x256 +1 x267 +1 x278 +1 x289 +1 x300 +1 x311 +1 x322 +1 x333 +1 x344 >= 9;
-1 x146 -1 x157 -1 x168 -1 x179 -1 x190 -1 x201 -1 x212 -1 x223 -1 x234 -1 x245 -1 x256 -1 x267 -1 x278 -1 x289 -1 x300 -1 x311 -1 x322 -1 x333 -1 x344 >= -10;
+1 x1 +1 x13 +1 x25 +1 x37 +1 x49 +1 x61 +1 x73 +1 x85 +1 x97 +1 x109 +1 x121 +1 x133 +1 x145 +1 x157 +1 x169 +1 x181 +1 x193 +1 x205 +1 x217 >= 9;
-1 x1 -1 x13 -1 x25 -1 x37 -1 x49 -1 x61 -1 x73 -1 x85 -1 x97 -1 x109 -1 x121 -1 x133 -1 x145 -1 x157 -1 x169 -1 x181 -1 x193 -1 x205 -1 x217 >= -10;
+1 x2 +1 x14 +1 x26 +1 x38 +1 x50 +1 x62 +1 x74 +1 x86 +1 x98 +1 x110 +1 x122 +1 x134 +1 x146 +1 x158 +1 x170 +1 x182 +1 x194 +1 x206 +1 x218 >= 9;
-1 x2 -1 x14 -1 x26 -1 x38 -1 x50 -1 x62 -1 x74 -1 x86 -1 x98 -1 x110 -1 x122 -1 x134 -1 x146 -1 x158 -1 x170 -1 x182 -1 x194 -1 x206 -1 x218 >= -10;
+1 x3 +1 x15 +1 x27 +1 x39 +1 x51 +1 x63 +1 x75 +1 x87 +1 x99 +1 x111 +1 x123 +1 x135 +1 x147 +1 x159 +1 x171 +1 x183 +1 x195 +1 x207 +1 x219 >= 9;
-1 x3 -1 x15 -1 x27 -1 x39 -1 x51 -1 x63 -1 x75 -1 x87 -1 x99 -1 x111 -1 x123 -1 x135 -1 x147 -1 x159 -1 x171 -1 x183 -1 x195 -1 x207 -1 x219 >= -10;
+1 x4 +1 x16 +1 x28 +1 x40 +1 x52 +1 x64 +1 x76 +1 x88 +1 x100 +1 x112 +1 x124 +1 x136 +1 x148 +1 x160 +1 x172 +1 x184 +1 x196 +1 x208 +1 x220 >= 9;
-1 x4 -1 x16 -1 x28 -1 x40 -1 x52 -1 x64 -1 x76 -1 x88 -1 x100 -1 x112 -1 x124 -1 x136 -1 x148 -1 x160 -1 x172 -1 x184 -1 x196 -1 x208 -1 x220 >= -10;
+1 x5 +1 x17 +1 x29 +1 x41 +1 x53 +1 x65 +1 x77 +1 x89 +1 x101 +1 x113 +1 x125 +1 x137 +1 x149 +1 x161 +1 x173 +1 x185 +1 x197 +1 x209 +1 x221 >= 9;
-1 x5 -1 x17 -1 x29 -1 x41 -1 x53 -1 x65 -1 x77 -1 x89 -1 x101 -1 x113 -1 x125 -1 x137 -1 x149 -1 x161 -1 x173 -1 x185 -1 x197 -1 x209 -1 x221 >= -10;
+1 x6 +1 x18 +1 x30 +1 x42 +1 x54 +1 x66 +1 x78 +1 x90 +1 x102 +1 x114 +1 x126 +1 x138 +1 x150 +1 x162 +1 x174 +1 x186 +1 x198 +1 x210 +1 x222 >= 9;
-1 x6 -1 x18 -1 x30 -1 x42 -1 x54 -1 x66 -1 x78 -1 x90 -1 x102 -1 x114 -1 x126 -1 x138 -1 x150 -1 x162 -1 x174 -1 x186 -1 x198 -1 x210 -1 x222 >= -10;
+1 x7 +1 x19 +1 x31 +1 x43 +1 x55 +1 x67 +1 x79 +1 x91 +1 x103 +1 x115 +1 x127 +1 x139 +1 x151 +1 x163 +1 x175 +1 x187 +1 x199 +1 x211 +1 x223 >= 9;
-1 x7 -1 x19 -1 x31 -1 x43 -1 x55 -1 x67 -1 x79 -1 x91 -1 x103 -1 x115 -1 x127 -1 x139 -1 x151 -1 x163 -1 x175 -1 x187 -1 x199 -1 x211 -1 x223 >= -10;
+1 x8 +1 x20 +1 x32 +1 x44 +1 x56 +1 x68 +1 x80 +1 x92 +1 x104 +1 x116 +1 x128 +1 x140 +1 x152 +1 x164 +1 x176 +1 x188 +1 x200 +1 x212 +1 x224 >= 9;
-1 x8 -1 x20 -1 x32 -1 x44 -1 x56 -1 x68 -1 x80 -1 x92 -1 x104 -1 x116 -1 x128 -1 x140 -1 x152 -1 x164 -1 x176 -1 x188 -1 x200 -1 x212 -1 x224 >= -10;
+1 x9 +1 x21 +1 x33 +1 x45 +1 x57 +1 x69 +1 x81 +1 x93 +1 x105 +1 x117 +1 x129 +1 x141 +1 x153 +1 x165 +1 x177 +1 x189 +1 x201 +1 x213 +1 x225 >= 9;
-1 x9 -1 x21 -1 x33 -1 x45 -1 x57 -1 x69 -1 x81 -1 x93 -1 x105 -1 x117 -1 x129 -1 x141 -1 x153 -1 x165 -1 x177 -1 x189 -1 x201 -1 x213 -1 x225 >= -10;
+1 x10 +1 x22 +1 x34 +1 x46 +1 x58 +1 x70 +1 x82 +1 x94 +1 x106 +1 x118 +1 x130 +1 x142 +1 x154 +1 x166 +1 x178 +1 x190 +1 x202 +1 x214 +1 x226 >= 9;
-1 x10 -1 x22 -1 x34 -1 x46 -1 x58 -1 x70 -1 x82 -1 x94 -1 x106 -1 x118 -1 x130 -1 x142 -1 x154 -1 x166 -1 x178 -1 x190 -1 x202 -1 x214 -1 x226 >= -10;
+1 x11 +1 x23 +1 x35 +1 x47 +1 x59 +1 x71 +1 x83 +1 x95 +1 x107 +1 x119 +1 x131 +1 x143 +1 x155 +1 x167 +1 x179 +1 x191 +1 x203 +1 x215 +1 x227 >= 9;
-1 x11 -1 x23 -1 x35 -1 x47 -1 x59 -1 x71 -1 x83 -1 x95 -1 x107 -1 x119 -1 x131 -1 x143 -1 x155 -1 x167 -1 x179 -1 x191 -1 x203 -1 x215 -1 x227 >= -10;
+1 x12 +1 x24 +1 x36 +1 x48 +1 x60 +1 x72 +1 x84 +1 x96 +1 x108 +1 x120 +1 x132 +1 x144 +1 x156 +1 x168 +1 x180 +1 x192 +1 x204 +1 x216 +1 x228 >= 9;
-1 x12 -1 x24 -1 x36 -1 x48 -1 x60 -1 x72 -1 x84 -1 x96 -1 x108 -1 x120 -1 x132 -1 x144 -1 x156 -1 x168 -1 x180 -1 x192 -1 x204 -1 x216 -1 x228 >= -10;
+1 x13 +1 x25 +1 x37 +1 x49 +1 x61 +1 x73 +1 x85 +1 x97 +1 x109 +1 x121 +1 x133 +1 x145 +1 x157 +1 x169 +1 x181 +1 x193 +1 x205 +1 x217 +1 x229 >= 9;
-1 x13 -1 x25 -1 x37 -1 x49 -1 x61 -1 x73 -1 x85 -1 x97 -1 x109 -1 x121 -1 x133 -1 x145 -1 x157 -1 x169 -1 x181 -1 x193 -1 x205 -1 x217 -1 x229 >= -10;
+1 x14 +1 x26 +1 x38 +1 x50 +1 x62 +1 x74 +1 x86 +1 x98 +1 x110 +1 x122 +1 x134 +1 x146 +1 x158 +1 x170 +1 x182 +1 x194 +1 x206 +1 x218 +1 x230 >= 9;
-1 x14 -1 x26 -1 x38 -1 x50 -1 x62 -1 x74 -1 x86 -1 x98 -1 x110 -1 x122 -1 x134 -1 x146 -1 x158 -1 x170 -1 x182 -1 x194 -1 x206 -1 x218 -1 x230 >= -10;
+1 x15 +1 x27 +1 x39 +1 x51 +1 x63 +1 x75 +1 x87 +1 x99 +1 x111 +1 x123 +1 x135 +1 x147 +1 x159 +1 x171 +1 x183 +1 x195 +1 x207 +1 x219 +1 x231 >= 9;
-1 x15 -1 x27 -1 x39 -1 x51 -1 x63 -1 x75 -1 x87 -1 x99 -1 x111 -1 x123 -1 x135 -1 x147 -1 x159 -1 x171 -1 x183 -1 x195 -1 x207 -1 x219 -1 x231 >= -10;
+1 x16 +1 x28 +1 x40 +1 x52 +1 x64 +1 x76 +1 x88 +1 x100 +1 x112 +1 x124 +1 x136 +1 x148 +1 x160 +1 x172 +1 x184 +1 x196 +1 x208 +1 x220 +1 x232 >= 9;
-1 x16 -1 x28 -1 x40 -1 x52 -1 x64 -1 x76 -1 x88 -1 x100 -1 x112 -1 x124 -1 x136 -1 x148 -1 x160 -1 x172 -1 x184 -1 x196 -1 x208 -1 x220 -1 x232 >= -10;
+1 x17 +1 x29 +1 x41 +1 x53 +1 x65 +1 x77 +1 x89 +1 x101 +1 x113 +1 x125 +1 x137 +1 x149 +1 x161 +1 x173 +1 x185 +1 x197 +1 x209 +1 x221 +1 x233 >= 9;
-1 x17 -1 x29 -1 x41 -1 x53 -1 x65 -1 x77 -1 x89 -1 x101 -1 x113 -1 x125 -1 x137 -1 x149 -1 x161 -1 x173 -1 x185 -1 x197 -1 x209 -1 x221 -1 x233 >= -10;
+1 x18 +1 x30 +1 x42 +1 x54 +1 x66 +1 x78 +1 x90 +1 x102 +1 x114 +1 x126 +1 x138 +1 x150 +1 x162 +1 x174 +1 x186 +1 x198 +1 x210 +1 x222 +1 x234 >= 9;
-1 x18 -1 x30 -1 x42 -1 x54 -1 x66 -1 x78 -1 x90 -1 x102 -1 x114 -1 x126 -1 x138 -1 x150 -1 x162 -1 x174 -1 x186 -1 x198 -1 x210 -1 x222 -1 x234 >= -10;
+1 x19 +1 x31 +1 x43 +1 x55 +1 x67 +1 x79 +1 x91 +1 x103 +1 x115 +1 x127 +1 x139 +1 x151 +1 x163 +1 x175 +1 x187 +1 x199 +1 x211 +1 x223 +1 x235 >= 9;
-1 x19 -1 x31 -1 x43 -1 x55 -1 x67 -1 x79 -1 x91 -1 x103 -1 x115 -1 x127 -1 x139 -1 x151 -1 x163 -1 x175 -1 x187 -1 x199 -1 x211 -1 x223 -1 x235 >= -10;
+1 x20 +1 x32 +1 x44 +1 x56 +1 x68 +1 x80 +1 x92 +1 x104 +1 x116 +1 x128 +1 x140 +1 x152 +1 x164 +1 x176 +1 x188 +1 x200 +1 x212 +1 x224 +1 x236 >= 9;
-1 x20 -1 x32 -1 x44 -1 x56 -1 x68 -1 x80 -1 x92 -1 x104 -1 x116 -1 x128 -1 x140 -1 x152 -1 x164 -1 x176 -1 x188 -1 x200 -1 x212 -1 x224 -1 x236 >= -10;
+1 x21 +1 x33 +1 x45 +1 x57 +1 x69 +1 x81 +1 x93 +1 x105 +1 x117 +1 x129 +1 x141 +1 x153 +1 x165 +1 x177 +1 x189 +1 x201 +1 x213 +1 x225 +1 x237 >= 9;
-1 x21 -1 x33 -1 x45 -1 x57 -1 x69 -1 x81 -1 x93 -1 x105 -1 x117 -1 x129 -1 x141 -1 x153 -1 x165 -1 x177 -1 x189 -1 x201 -1 x213 -1 x225 -1 x237 >= -10;
+1 x22 +1 x34 +1 x46 +1 x58 +1 x70 +1 x82 +1 x94 +1 x106 +1 x118 +1 x130 +1 x142 +1 x154 +1 x166 +1 x178 +1 x190 +1 x202 +1 x214 +1 x226 +1 x238 >= 9;
-1 x22 -1 x34 -1 x46 -1 x58 -1 x70 -1 x82 -1 x94 -1 x106 -1 x118 -1 x130 -1 x142 -1 x154 -1 x166 -1 x178 -1 x190 -1 x202 -1 x214 -1 x226 -1 x238 >= -10;
+1 x23 +1 x35 +1 x47 +1 x59 +1 x71 +1 x83 +1 x95 +1 x107 +1 x119 +1 x131 +1 x143 +1 x155 +1 x167 +1 x179 +1 x191 +1 x203 +1 x215 +1 x227 +1 x239 >= 9;
-1 x23 -1 x35 -1 x47 -1 x59 -1 x71 -1 x83 -1 x95 -1 x107 -1 x119 -1 x131 -1 x143 -1 x155 -1 x167 -1 x179 -1 x191 -1 x203 -1 x215 -1 x227 -1 x239 >= -10;
+1 x24 +1 x36 +1 x48 +1 x60 +1 x72 +1 x84 +1 x96 +1 x108 +1 x120 +1 x132 +1 x144 +1 x156 +1 x168 +1 x180 +1 x192 +1 x204 +1 x216 +1 x228 +1 x240 >= 9;
-1 x24 -1 x36 -1 x48 -1 x60 -1 x72 -1 x84 -1 x96 -1 x108 -1 x120 -1 x132 -1 x144 -1 x156 -1 x168 -1 x180 -1 x192 -1 x204 -1 x216 -1 x228 -1 x240 >= -10;
+1 x25 +1 x37 +1 x49 +1 x61 +1 x73 +1 x85 +1 x97 +1 x109 +1 x121 +1 x133 +1 x145 +1 x157 +1 x169 +1 x181 +1 x193 +1 x205 +1 x217 +1 x229 +1 x241 >= 9;
-1 x25 -1 x37 -1 x49 -1 x61 -1 x73 -1 x85 -1 x97 -1 x109 -1 x121 -1 x133 -1 x145 -1 x157 -1 x169 -1 x181 -1 x193 -1 x205 -1 x217 -1 x229 -1 x241 >= -10;
+1 x26 +1 x38 +1 x50 +1 x62 +1 x74 +1 x86 +1 x98 +1 x110 +1 x122 +1 x134 +1 x146 +1 x158 +1 x170 +1 x182 +1 x194 +1 x206 +1 x218 +1 x230 +1 x242 >= 9;
-1 x26 -1 x38 -1 x50 -1 x62 -1 x74 -1 x86 -1 x98 -1 x110 -1 x122 -1 x134 -1 x146 -1 x158 -1 x170 -1 x182 -1 x194 -1 x206 -1 x218 -1 x230 -1 x242 >= -10;
+1 x27 +1 x39 +1 x51 +1 x63 +1 x75 +1 x87 +1 x99 +1 x111 +1 x123 +1 x135 +1 x147 +1 x159 +1 x171 +1 x183 +1 x195 +1 x207 +1 x219 +1 x231 +1 x243 >= 9;
-1 x27 -1 x39 -1 x51 -1 x63 -1 x75 -1 x87 -1 x99 -1 x111 -1 x123 -1 x135 -1 x147 -1 x159 -1 x171 -1 x183 -1 x195 -1 x207 -1 x219 -1 x231 -1 x243 >= -10;
+1 x28 +1 x40 +1 x52 +1 x64 +1 x76 +1 x88 +1 x100 +1 x112 +1 x124 +1 x136 +1 x148 +1 x160 +1 x172 +1 x184 +1 x196 +1 x208 +1 x220 +1 x232 +1 x244 >= 9;
-1 x28 -1 x40 -1 x52 -1 x64 -1 x76 -1 x88 -1 x100 -1 x112 -1 x124 -1 x136 -1 x148 -1 x160 -1 x172 -1 x184 -1 x196 -1 x208 -1 x220 -1 x232 -1 x244 >= -10;
+1 x29 +1 x41 +1 x53 +1 x65 +1 x77 +1 x89 +1 x101 +1 x113 +1 x125 +1 x137 +1 x149 +1 x161 +1 x173 +1 x185 +1 x197 +1 x209 +1 x221 +1 x233 +1 x245 >= 9;
-1 x29 -1 x41 -1 x53 -1 x65 -1 x77 -1 x89 -1 x101 -1 x113 -1 x125 -1 x137 -1 x149 -1 x161 -1 x173 -1 x185 -1 x197 -1 x209 -1 x221 -1 x233 -1 x245 >= -10;
+1 x30 +1 x42 +1 x54 +1 x66 +1 x78 +1 x90 +1 x102 +1 x114 +1 x126 +1 x138 +1 x150 +1 x162 +1 x174 +1 x186 +1 x198 +1 x210 +1 x222 +1 x234 +1 x246 >= 9;
-1 x30 -1 x42 -1 x54 -1 x66 -1 x78 -1 x90 -1 x102 -1 x114 -1 x126 -1 x138 -1 x150 -1 x162 -1 x174 -1 x186 -1 x198 -1 x210 -1 x222 -1 x234 -1 x246 >= -10;
+1 x31 +1 x43 +1 x55 +1 x67 +1 x79 +1 x91 +1 x103 +1 x115 +1 x127 +1 x139 +1 x151 +1 x163 +1 x175 +1 x187 +1 x199 +1 x211 +1 x223 +1 x235 +1 x247 >= 9;
-1 x31 -1 x43 -1 x55 -1 x67 -1 x79 -1 x91 -1 x103 -1 x115 -1 x127 -1 x139 -1 x151 -1 x163 -1 x175 -1 x187 -1 x199 -1 x211 -1 x223 -1 x235 -1 x247 >= -10;
+1 x32 +1 x44 +1 x56 +1 x68 +1 x80 +1 x92 +1 x104 +1 x116 +1 x128 +1 x140 +1 x152 +1 x164 +1 x176 +1 x188 +1 x200 +1 x212 +1 x224 +1 x236 +1 x248 >= 9;
-1 x32 -1 x44 -1 x56 -1 x68 -1 x80 -1 x92 -1 x104 -1 x116 -1 x128 -1 x140 -1 x152 -1 x164 -1 x176 -1 x188 -1 x200 -1 x212 -1 x224 -1 x236 -1 x248 >= -10;
+1 x33 +1 x45 +1 x57 +1 x69 +1 x81 +1 x93 +1 x105 +1 x117 +1 x129 +1 x141 +1 x153 +1 x165 +1 x177 +1 x189 +1 x201 +1 x213 +1 x225 +1 x237 +1 x249 >= 9;
-1 x33 -1 x45 -1 x57 -1 x69 -1 x81 -1 x93 -1 x105 -1 x117 -1 x129 -1 x141 -1 x153 -1 x165 -1 x177 -1 x189 -1 x201 -1 x213 -1 x225 -1 x237 -1 x249 >= -10;
+1 x34 +1 x46 +1 x58 +1 x70 +1 x82 +1 x94 +1 x106 +1 x118 +1 x130 +1 x142 +1 x154 +1 x166 +1 x178 +1 x190 +1 x202 +1 x214 +1 x226 +1 x238 +1 x250 >= 9;
-1 x34 -1 x46 -1 x58 -1 x70 -1 x82 -1 x94 -1 x106 -1 x118 -1 x130 -1 x142 -1 x154 -1 x166 -1 x178 -1 x190 -1 x202 -1 x214 -1 x226 -1 x238 -1 x250 >= -10;
+1 x35 +1 x47 +1 x59 +1 x71 +1 x83 +1 x95 +1 x107 +1 x119 +1 x131 +1 x143 +1 x155 +1 x167 +1 x179 +1 x191 +1 x203 +1 x215 +1 x227 +1 x239 +1 x251 >= 9;
-1 x35 -1 x47 -1 x59 -1 x71 -1 x83 -1 x95 -1 x107 -1 x119 -1 x131 -1 x143 -1 x155 -1 x167 -1 x179 -1 x191 -1 x203 -1 x215 -1 x227 -1 x239 -1 x251 >= -10;
+1 x36 +1 x48 +1 x60 +1 x72 +1 x84 +1 x96 +1 x108 +1 x120 +1 x132 +1 x144 +1 x156 +1 x168 +1 x180 +1 x192 +1 x204 +1 x216 +1 x228 +1 x240 +1 x252 >= 9;
-1 x36 -1 x48 -1 x60 -1 x72 -1 x84 -1 x96 -1 x108 -1 x120 -1 x132 -1 x144 -1 x156 -1 x168 -1 x180 -1 x192 -1 x204 -1 x216 -1 x228 -1 x240 -1 x252 >= -10;
+1 x37 +1 x49 +1 x61 +1 x73 +1 x85 +1 x97 +1 x109 +1 x121 +1 x133 +1 x145 +1 x157 +1 x169 +1 x181 +1 x193 +1 x205 +1 x217 +1 x229 +1 x241 +1 x253 >= 9;
-1 x37 -1 x49 -1 x61 -1 x73 -1 x85 -1 x97 -1 x109 -1 x121 -1 x133 -1 x145 -1 x157 -1 x169 -1 x181 -1 x193 -1 x205 -1 x217 -1 x229 -1 x241 -1 x253 >= -10;
+1 x38 +1 x50 +1 x62 +1 x74 +1 x86 +1 x98 +1 x110 +1 x122 +1 x134 +1 x146 +1 x158 +1 x170 +1 x182 +1 x194 +1 x206 +1 x218 +1 x230 +1 x242 +1 x254 >= 9;
-1 x38 -1 x50 -1 x62 -1 x74 -1 x86 -1 x98 -1 x110 -1 x122 -1 x134 -1 x146 -1 x158 -1 x170 -1 x182 -1 x194 -1 x206 -1 x218 -1 x230 -1 x242 -1 x254 >= -10;
+1 x39 +1 x51 +1 x63 +1 x75 +1 x87 +1 x99 +1 x111 +1 x123 +1 x135 +1 x147 +1 x159 +1 x171 +1 x183 +1 x195 +1 x207 +1 x219 +1 x231 +1 x243 +1 x255 >= 9;
-1 x39 -1 x51 -1 x63 -1 x75 -1 x87 -1 x99 -1 x111 -1 x123 -1 x135 -1 x147 -1 x159 -1 x171 -1 x183 -1 x195 -1 x207 -1 x219 -1 x231 -1 x243 -1 x255 >= -10;
+1 x40 +1 x52 +1 x64 +1 x76 +1 x88 +1 x100 +1 x112 +1 x124 +1 x136 +1 x148 +1 x160 +1 x172 +1 x184 +1 x196 +1 x208 +1 x220 +1 x232 +1 x244 +1 x256 >= 9;
-1 x40 -1 x52 -1 x64 -1 x76 -1 x88 -1 x100 -1 x112 -1 x124 -1 x136 -1 x148 -1 x160 -1 x172 -1 x184 -1 x196 -1 x208 -1 x220 -1 x232 -1 x244 -1 x256 >= -10;
+1 x41 +1 x53 +1 x65 +1 x77 +1 x89 +1 x101 +1 x113 +1 x125 +1 x137 +1 x149 +1 x161 +1 x173 +1 x185 +1 x197 +1 x209 +1 x221 +1 x233 +1 x245 +1 x257 >= 9;
-1 x41 -1 x53 -1 x65 -1 x77 -1 x89 -1 x101 -1 x113 -1 x125 -1 x137 -1 x149 -1 x161 -1 x173 -1 x185 -1 x197 -1 x209 -1 x221 -1 x233 -1 x245 -1 x257 >= -10;
+1 x42 +1 x54 +1 x66 +1 x78 +1 x90 +1 x102 +1 x114 +1 x126 +1 x138 +1 x150 +1 x162 +1 x174 +1 x186 +1 x198 +1 x210 +1 x222 +1 x234 +1 x246 +1 x258 >= 9;
-1 x42 -1 x54 -1 x66 -1 x78 -1 x90 -1 x102 -1 x114 -1 x126 -1 x138 -1 x150 -1 x162 -1 x174 -1 x186 -1 x198 -1 x210 -1 x222 -1 x234 -1 x246 -1 x258 >= -10;
+1 x43 +1 x55 +1 x67 +1 x79 +1 x91 +1 x103 +1 x115 +1 x127 +1 x139 +1 x151 +1 x163 +1 x175 +1 x187 +1 x199 +1 x211 +1 x223 +1 x235 +1 x247 +1 x259 >= 9;
-1 x43 -1 x55 -1 x67 -1 x79 -1 x91 -1 x103 -1 x115 -1 x127 -1 x139 -1 x151 -1 x163 -1 x175 -1 x187 -1 x199 -1 x211 -1 x223 -1 x235 -1 x247 -1 x259 >= -10;
+1 x44 +1 x56 +1 x68 +1 x80 +1 x92 +1 x104 +1 x116 +1 x128 +1 x140 +1 x152 +1 x164 +1 x176 +1 x188 +1 x200 +1 x212 +1 x224 +1 x236 +1 x248 +1 x260 >= 9;
-1 x44 -1 x56 -1 x68 -1 x80 -1 x92 -1 x104 -1 x116 -1 x128 -1 x140 -1 x152 -1 x164 -1 x176 -1 x188 -1 x200 -1 x212 -1 x224 -1 x236 -1 x248 -1 x260 >= -10;
+1 x45 +1 x57 +1 x69 +1 x81 +1 x93 +1 x105 +1 x117 +1 x129 +1 x141 +1 x153 +1 x165 +1 x177 +1 x189 +1 x201 +1 x213 +1 x225 +1 x237 +1 x249 +1 x261 >= 9;
-1 x45 -1 x57 -1 x69 -1 x81 -1 x93 -1 x105 -1 x117 -1 x129 -1 x141 -1 x153 -1 x165 -1 x177 -1 x189 -1 x201 -1 x213 -1 x225 -1 x237 -1 x249 -1 x261 >= -10;
+1 x46 +1 x58 +1 x70 +1 x82 +1 x94 +1 x106 +1 x118 +1 x130 +1 x142 +1 x154 +1 x166 +1 x178 +1 x190 +1 x202 +1 x214 +1 x226 +1 x238 +1 x250 +1 x262 >= 9;
-1 x46 -1 x58 -1 x70 -1 x82 -1 x94 -1 x106 -1 x118 -1 x130 -1 x142 -1 x154 -1 x166 -1 x178 -1 x190 -1 x202 -1 x214 -1 x226 -1 x238 -1 x250 -1 x262 >= -10;
+1 x47 +1 x59 +1 x71 +1 x83 +1 x95 +1 x107 +1 x119 +1 x131 +1 x143 +1 x155 +1 x167 +1 x179 +1 x191 +1 x203 +1 x215 +1 x227 +1 x239 +1 x251 +1 x263 >= 9;
-1 x47 -1 x59 -1 x71 -1 x83 -1 x95 -1 x107 -1 x119 -1 x131 -1 x143 -1 x155 -1 x167 -1 x179 -1 x191 -1 x203 -1 x215 -1 x227 -1 x239 -1 x251 -1 x263 >= -10;
+1 x48 +1 x60 +1 x72 +1 x84 +1 x96 +1 x108 +1 x120 +1 x132 +1 x144 +1 x156 +1 x168 +1 x180 +1 x192 +1 x204 +1 x216 +1 x228 +1 x240 +1 x252 +1 x264 >= 9;
-1 x48 -1 x60 -1 x72 -1 x84 -1 x96 -1 x108 -1 x120 -1 x132 -1 x144 -1 x156 -1 x168 -1 x180 -1 x192 -1 x204 -1 x216 -1 x228 -1 x240 -1 x252 -1 x264 >= -10;
+1 x49 +1 x61 +1 x73 +1 x85 +1 x97 +1 x109 +1 x121 +1 x133 +1 x145 +1 x157 +1 x169 +1 x181 +1 x193 +1 x205 +1 x217 +1 x229 +1 x241 +1 x253 +1 x265 >= 9;
-1 x49 -1 x61 -1 x73 -1 x85 -1 x97 -1 x109 -1 x121 -1 x133 -1 x145 -1 x157 -1 x169 -1 x181 -1 x193 -1 x205 -1 x217 -1 x229 -1 x241 -1 x253 -1 x265 >= -10;
+1 x50 +1 x62 +1 x74 +1 x86 +1 x98 +1 x110 +1 x122 +1 x134 +1 x146 +1 x158 +1 x170 +1 x182 +1 x194 +1 x206 +1 x218 +1 x230 +1 x242 +1 x254 +1 x266 >= 9;
-1 x50 -1 x62 -1 x74 -1 x86 -1 x98 -1 x110 -1 x122 -1 x134 -1 x146 -1 x158 -1 x170 -1 x182 -1 x194 -1 x206 -1 x218 -1 x230 -1 x242 -1 x254 -1 x266 >= -10;
+1 x51 +1 x63 +1 x75 +1 x87 +1 x99 +1 x111 +1 x123 +1 x135 +1 x147 +1 x159 +1 x171 +1 x183 +1 x195 +1 x207 +1 x219 +1 x231 +1 x243 +1 x255 +1 x267 >= 9;
-1 x51 -1 x63 -1 x75 -1 x87 -1 x99 -1 x111 -1 x123 -1 x135 -1 x147 -1 x159 -1 x171 -1 x183 -1 x195 -1 x207 -1 x219 -1 x231 -1 x243 -1 x255 -1 x267 >= -10;
+1 x52 +1 x64 +1 x76 +1 x88 +1 x100 +1 x112 +1 x124 +1 x136 +1 x148 +1 x160 +1 x172 +1 x184 +1 x196 +1 x208 +1 x220 +1 x232 +1 x244 +1 x256 +1 x268 >= 9;
-1 x52 -1 x64 -1 x76 -1 x88 -1 x100 -1 x112 -1 x124 -1 x136 -1 x148 -1 x160 -1 x172 -1 x184 -1 x196 -1 x208 -1 x220 -1 x232 -1 x244 -1 x256 -1 x268 >= -10;
+1 x53 +1 x65 +1 x77 +1 x89 +1 x101 +1 x113 +1 x125 +1 x137 +1 x149 +1 x161 +1 x173 +1 x185 +1 x197 +1 x209 +1 x221 +1 x233 +1 x245 +1 x257 +1 x269 >= 9;
-1 x53 -1 x65 -1 x77 -1 x89 -1 x101 -1 x113 -1 x125 -1 x137 -1 x149 -1 x161 -1 x173 -1 x185 -1 x197 -1 x209 -1 x221 -1 x233 -1 x245 -1 x257 -1 x269 >= -10;
+1 x54 +1 x66 +1 x78 +1 x90 +1 x102 +1 x114 +1 x126 +1 x138 +1 x150 +1 x162 +1 x174 +1 x186 +1 x198 +1 x210 +1 x222 +1 x234 +1 x246 +1 x258 +1 x270 >= 9;
-1 x54 -1 x66 -1 x78 -1 x90 -1 x102 -1 x114 -1 x126 -1 x138 -1 x150 -1 x162 -1 x174 -1 x186 -1 x198 -1 x210 -1 x222 -1 x234 -1 x246 -1 x258 -1 x270 >= -10;
+1 x55 +1 x67 +1 x79 +1 x91 +1 x103 +1 x115 +1 x127 +1 x139 +1 x151 +1 x163 +1 x175 +1 x187 +1 x199 +1 x211 +1 x223 +1 x235 +1 x247 +1 x259 +1 x271 >= 9;
-1 x55 -1 x67 -1 x79 -1 x91 -1 x103 -1 x115 -1 x127 -1 x139 -1 x151 -1 x163 -1 x175 -1 x187 -1 x199 -1 x211 -1 x223 -1 x235 -1 x247 -1 x259 -1 x271 >= -10;
+1 x56 +1 x68 +1 x80 +1 x92 +1 x104 +1 x116 +1 x128 +1 x140 +1 x152 +1 x164 +1 x176 +1 x188 +1 x200 +1 x212 +1 x224 +1 x236 +1 x248 +1 x260 +1 x272 >= 9;
-1 x56 -1 x68 -1 x80 -1 x92 -1 x104 -1 x116 -1 x128 -1 x140 -1 x152 -1 x164 -1 x176 -1 x188 -1 x200 -1 x212 -1 x224 -1 x236 -1 x248 -1 x260 -1 x272 >= -10;
+1 x57 +1 x69 +1 x81 +1 x93 +1 x105 +1 x117 +1 x129 +1 x141 +1 x153 +1 x165 +1 x177 +1 x189 +1 x201 +1 x213 +1 x225 +1 x237 +1 x249 +1 x261 +1 x273 >= 9;
-1 x57 -1 x69 -1 x81 -1 x93 -1 x105 -1 x117 -1 x129 -1 x141 -1 x153 -1 x165 -1 x177 -1 x189 -1 x201 -1 x213 -1 x225 -1 x237 -1 x249 -1 x261 -1 x273 >= -10;
+1 x58 +1 x70 +1 x82 +1 x94 +1 x106 +1 x118 +1 x130 +1 x142 +1 x154 +1 x166 +1 x178 +1 x190 +1 x202 +1 x214 +1 x226 +1 x238 +1 x250 +1 x262 +1 x274 >= 9;
-1 x58 -1 x70 -1 x82 -1 x94 -1 x106 -1 x118 -1 x130 -1 x142 -1 x154 -1 x166 -1 x178 -1 x190 -1 x202 -1 x214 -1 x226 -1 x238 -1 x250 -1 x262 -1 x274 >= -10;
+1 x59 +1 x71 +1 x83 +1 x95 +1 x107 +1 x119 +1 x131 +1 x143 +1 x155 +1 x167 +1 x179 +1 x191 +1 x203 +1 x215 +1 x227 +1 x239 +1 x251 +1 x263 +1 x275 >= 9;
-1 x59 -1 x71 -1 x83 -1 x95 -1 x107 -1 x119 -1 x131 -1 x143 -1 x155 -1 x167 -1 x179 -1 x191 -1 x203 -1 x215 -1 x227 -1 x239 -1 x251 -1 x263 -1 x275 >= -10;
+1 x60 +1 x72 +1 x84 +1 x96 +1 x108 +1 x120 +1 x132 +1 x144 +1 x156 +1 x168 +1 x180 +1 x192 +1 x204 +1 x216 +1 x228 +1 x240 +1 x252 +1 x264 +1 x276 >= 9;
-1 x60 -1 x72 -1 x84 -1 x96 -1 x108 -1 x120 -1 x132 -1 x144 -1 x156 -1 x168 -1 x180 -1 x192 -1 x204 -1 x216 -1 x228 -1 x240 -1 x252 -1 x264 -1 x276 >= -10;
+1 x61 +1 x73 +1 x85 +1 x97 +1 x109 +1 x121 +1 x133 +1 x145 +1 x157 +1 x169 +1 x181 +1 x193 +1 x205 +1 x217 +1 x229 +1 x241 +1 x253 +1 x265 +1 x277 >= 9;
-1 x61 -1 x73 -1 x85 -1 x97 -1 x109 -1 x121 -1 x133 -1 x145 -1 x157 -1 x169 -1 x181 -1 x193 -1 x205 -1 x217 -1 x229 -1 x241 -1 x253 -1 x265 -1 x277 >= -10;
+1 x62 +1 x74 +1 x86 +1 x98 +1 x110 +1 x122 +1 x134 +1 x146 +1 x158 +1 x170 +1 x182 +1 x194 +1 x206 +1 x218 +1 x230 +1 x242 +1 x254 +1 x266 +1 x278 >= 9;
-1 x62 -1 x74 -1 x86 -1 x98 -1 x110 -1 x122 -1 x134 -1 x146 -1 x158 -1 x170 -1 x182 -1 x194 -1 x206 -1 x218 -1 x230 -1 x242 -1 x254 -1 x266 -1 x278 >= -10;
+1 x63 +1 x75 +1 x87 +1 x99 +1 x111 +1 x123 +1 x135 +1 x147 +1 x159 +1 x171 +1 x183 +1 x195 +1 x207 +1 x219 +1 x231 +1 x243 +1 x255 +1 x267 +1 x279 >= 9;
-1 x63 -1 x75 -1 x87 -1 x99 -1 x111 -1 x123 -1 x135 -1 x147 -1 x159 -1 x171 -1 x183 -1 x195 -1 x207 -1 x219 -1 x231 -1 x243 -1 x255 -1 x267 -1 x279 >= -10;
+1 x64 +1 x76 +1 x88 +1 x100 +1 x112 +1 x124 +1 x136 +1 x148 +1 x160 +1 x172 +1 x184 +1 x196 +1 x208 +1 x220 +1 x232 +1 x244 +1 x256 +1 x268 +1 x280 >= 9;
-1 x64 -1 x76 -1 x88 -1 x100 -1 x112 -1 x124 -1 x136 -1 x148 -1 x160 -1 x172 -1 x184 -1 x196 -1 x208 -1 x220 -1 x232 -1 x244 -1 x256 -1 x268 -1 x280 >= -10;
+1 x65 +1 x77 +1 x89 +1 x101 +1 x113 +1 x125 +1 x137 +1 x149 +1 x161 +1 x173 +1 x185 +1 x197 +1 x209 +1 x221 +1 x233 +1 x245 +1 x257 +1 x269 +1 x281 >= 9;
-1 x65 -1 x77 -1 x89 -1 x101 -1 x113 -1 x125 -1 x137 -1 x149 -1 x161 -1 x173 -1 x185 -1 x197 -1 x209 -1 x221 -1 x233 -1 x245 -1 x257 -1 x269 -1 x281 >= -10;
+1 x66 +1 x78 +1 x90 +1 x102 +1 x114 +1 x126 +1 x138 +1 x150 +1 x162 +1 x174 +1 x186 +1 x198 +1 x210 +1 x222 +1 x234 +1 x246 +1 x258 +1 x270 +1 x282 >= 9;
-1 x66 -1 x78 -1 x90 -1 x102 -1 x114 -1 x126 -1 x138 -1 x150 -1 x162 -1 x174 -1 x186 -1 x198 -1 x210 -1 x222 -1 x234 -1 x246 -1 x258 -1 x270 -1 x282 >= -10;
+1 x67 +1 x79 +1 x91 +1 x103 +1 x115 +1 x127 +1 x139 +1 x151 +1 x163 +1 x175 +1 x187 +1 x199 +1 x211 +1 x223 +1 x235 +1 x247 +1 x259 +1 x271 +1 x283 >= 9;
-1 x67 -1 x79 -1 x91 -1 x103 -1 x115 -1 x127 -1 x139 -1 x151 -1 x163 -1 x175 -1 x187 -1 x199 -1 x211 -1 x223 -1 x235 -1 x247 -1 x259 -1 x271 -1 x283 >= -10;
+1 x68 +1 x80 +1 x92 +1 x104 +1 x116 +1 x128 +1 x140 +1 x152 +1 x164 +1 x176 +1 x188 +1 x200 +1 x212 +1 x224 +1 x236 +1 x248 +1 x260 +1 x272 +1 x284 >= 9;
-1 x68 -1 x80 -1 x92 -1 x104 -1 x116 -1 x128 -1 x140 -1 x152 -1 x164 -1 x176 -1 x188 -1 x200 -1 x212 -1 x224 -1 x236 -1 x248 -1 x260 -1 x272 -1 x284 >= -10;
+1 x69 +1 x81 +1 x93 +1 x105 +1 x117 +1 x129 +1 x141 +1 x153 +1 x165 +1 x177 +1 x189 +1 x201 +1 x213 +1 x225 +1 x237 +1 x249 +1 x261 +1 x273 +1 x285 >= 9;
-1 x69 -1 x81 -1 x93 -1 x105 -1 x117 -1 x129 -1 x141 -1 x153 -1 x165 -1 x177 -1 x189 -1 x201 -1 x213 -1 x225 -1 x237 -1 x249 -1 x261 -1 x273 -1 x285 >= -10;
+1 x70 +1 x82 +1 x94 +1 x106 +1 x118 +1 x130 +1 x142 +1 x154 +1 x166 +1 x178 +1 x190 +1 x202 +1 x214 +1 x226 +1 x238 +1 x250 +1 x262 +1 x274 +1 x286 >= 9;
-1 x70 -1 x82 -1 x94 -1 x106 -1 x118 -1 x130 -1 x142 -1 x154 -1 x166 -1 x178 -1 x190 -1 x202 -1 x214 -1 x226 -1 x238 -1 x250 -1 x262 -1 x274 -1 x286 >= -10;
+1 x71 +1 x83 +1 x95 +1 x107 +1 x119 +1 x131 +1 x143 +1 x155 +1 x167 +1 x179 +1 x191 +1 x203 +1 x215 +1 x227 +1 x239 +1 x251 +1 x263 +1 x275 +1 x287 >= 9;
-1 x71 -1 x83 -1 x95 -1 x107 -1 x119 -1 x131 -1 x143 -1 x155 -1 x167 -1 x179 -1 x191 -1 x203 -1 x215 -1 x227 -1 x239 -1 x251 -1 x263 -1 x275 -1 x287 >= -10;
+1 x72 +1 x84 +1 x96 +1 x108 +1 x120 +1 x132 +1 x144 +1 x156 +1 x168 +1 x180 +1 x192 +1 x204 +1 x216 +1 x228 +1 x240 +1 x252 +1 x264 +1 x276 +1 x288 >= 9;
-1 x72 -1 x84 -1 x96 -1 x108 -1 x120 -1 x132 -1 x144 -1 x156 -1 x168 -1 x180 -1 x192 -1 x204 -1 x216 -1 x228 -1 x240 -1 x252 -1 x264 -1 x276 -1 x288 >= -10;
+1 x73 +1 x85 +1 x97 +1 x109 +1 x121 +1 x133 +1 x145 +1 x157 +1 x169 +1 x181 +1 x193 +1 x205 +1 x217 +1 x229 +1 x241 +1 x253 +1 x265 +1 x277 +1 x289 >= 9;
-1 x73 -1 x85 -1 x97 -1 x109 -1 x121 -1 x133 -1 x145 -1 x157 -1 x169 -1 x181 -1 x193 -1 x205 -1 x217 -1 x229 -1 x241 -1 x253 -1 x265 -1 x277 -1 x289 >= -10;
+1 x74 +1 x86 +1 x98 +1 x110 +1 x122 +1 x134 +1 x146 +1 x158 +1 x170 +1 x182 +1 x194 +1 x206 +1 x218 +1 x230 +1 x242 +1 x254 +1 x266 +1 x278 +1 x290 >= 9;
-1 x74 -1 x86 -1 x98 -1 x110 -1 x122 -1 x134 -1 x146 -1 x158 -1 x170 -1 x182 -1 x194 -1 x206 -1 x218 -1 x230 -1 x242 -1 x254 -1 x266 -1 x278 -1 x290 >= -10;
+1 x75 +1 x87 +1 x99 +1 x111 +1 x123 +1 x135 +1 x147 +1 x159 +1 x171 +1 x183 +1 x195 +1 x207 +1 x219 +1 x231 +1 x243 +1 x255 +1 x267 +1 x279 +1 x291 >= 9;
-1 x75 -1 x87 -1 x99 -1 x111 -1 x123 -1 x135 -1 x147 -1 x159 -1 x171 -1 x183 -1 x195 -1 x207 -1 x219 -1 x231 -1 x243 -1 x255 -1 x267 -1 x279 -1 x291 >= -10;
+1 x76 +1 x88 +1 x100 +1 x112 +1 x124 +1 x136 +1 x148 +1 x160 +1 x172 +1 x184 +1 x196 +1 x208 +1 x220 +1 x232 +1 x244 +1 x256 +1 x268 +1 x280 +1 x292 >= 9;
-1 x76 -1 x88 -1 x100 -1 x112 -1 x124 -1 x136 -1 x148 -1 x160 -1 x172 -1 x184 -1 x196 -1 x208 -1 x220 -1 x232 -1 x244 -1 x256 -1 x268 -1 x280 -1 x292 >= -10;
+1 x77 +1 x89 +1 x101 +1 x113 +1 x125 +1 x137 +1 x149 +1 x161 +1 x173 +1 x185 +1 x197 +1 x209 +1 x221 +1 x233 +1 x245 +1 x257 +1 x269 +1 x281 +1 x293 >= 9;
-1 x77 -1 x89 -1 x101 -1 x113 -1 x125 -1 x137 -1 x149 -1 x161 -1 x173 -1 x185 -1 x197 -1 x209 -1 x221 -1 x233 -1 x245 -1 x257 -1 x269 -1 x281 -1 x293 >= -10;
+1 x78 +1 x90 +1 x102 +1 x114 +1 x126 +1 x138 +1 x150 +1 x162 +1 x174 +1 x186 +1 x198 +1 x210 +1 x222 +1 x234 +1 x246 +1 x258 +1 x270 +1 x282 +1 x294 >= 9;
-1 x78 -1 x90 -1 x102 -1 x114 -1 x126 -1 x138 -1 x150 -1 x162 -1 x174 -1 x186 -1 x198 -1 x210 -1 x222 -1 x234 -1 x246 -1 x258 -1 x270 -1 x282 -1 x294 >= -10;
+1 x79 +1 x91 +1 x103 +1 x115 +1 x127 +1 x139 +1 x151 +1 x163 +1 x175 +1 x187 +1 x199 +1 x211 +1 x223 +1 x235 +1 x247 +1 x259 +1 x271 +1 x283 +1 x295 >= 9;
-1 x79 -1 x91 -1 x103 -1 x115 -1 x127 -1 x139 -1 x151 -1 x163 -1 x175 -1 x187 -1 x199 -1 x211 -1 x223 -1 x235 -1 x247 -1 x259 -1 x271 -1 x283 -1 x295 >= -10;
+1 x80 +1 x92 +1 x104 +1 x116 +1 x128 +1 x140 +1 x152 +1 x164 +1 x176 +1 x188 +1 x200 +1 x212 +1 x224 +1 x236 +1 x248 +1 x260 +1 x272 +1 x284 +1 x296 >= 9;
-1 x80 -1 x92 -1 x104 -1 x116 -1 x128 -1 x140 -1 x152 -1 x164 -1 x176 -1 x188 -1 x200 -1 x212 -1 x224 -1 x236 -1 x248 -1 x260 -1 x272 -1 x284 -1 x296 >= -10;
+1 x81 +1 x93 +1 x105 +1 x117 +1 x129 +1 x141 +1 x153 +1 x165 +1 x177 +1 x189 +1 x201 +1 x213 +1 x225 +1 x237 +1 x249 +1 x261 +1 x273 +1 x285 +1 x297 >= 9;
-1 x81 -1 x93 -1 x105 -1 x117 -1 x129 -1 x141 -1 x153 -1 x165 -1 x177 -1 x189 -1 x201 -1 x213 -1 x225 -1 x237 -1 x249 -1 x261 -1 x273 -1 x285 -1 x297 >= -10;
+1 x82 +1 x94 +1 x106 +1 x118 +1 x130 +1 x142 +1 x154 +1 x166 +1 x178 +1 x190 +1 x202 +1 x214 +1 x226 +1 x238 +1 x250 +1 x262 +1 x274 +1 x286 +1 x298 >= 9;
-1 x82 -1 x94 -1 x106 -1 x118 -1 x130 -1 x142 -1 x154 -1 x166 -1 x178 -1 x190 -1 x202 -1 x214 -1 x226 -1 x238 -1 x250 -1 x262 -1 x274 -1 x286 -1 x298 >= -10;
+1 x83 +1 x95 +1 x107 +1 x119 +1 x131 +1 x143 +1 x155 +1 x167 +1 x179 +1 x191 +1 x203 +1 x215 +1 x227 +1 x239 +1 x251 +1 x263 +1 x275 +1 x287 +1 x299 >= 9;
-1 x83 -1 x95 -1 x107 -1 x119 -1 x131 -1 x143 -1 x155 -1 x167 -1 x179 -1 x191 -1 x203 -1 x215 -1 x227 -1 x239 -1 x251 -1 x263 -1 x275 -1 x287 -1 x299 >= -10;
+1 x84 +1 x96 +1 x108 +1 x120 +1 x132 +1 x144 +1 x156 +1 x168 +1 x180 +1 x192 +1 x204 +1 x216 +1 x228 +1 x240 +1 x252 +1 x264 +1 x276 +1 x288 +1 x300 >= 9;
-1 x84 -1 x96 -1 x108 -1 x120 -1 x132 -1 x144 -1 x156 -1 x168 -1 x180 -1 x192 -1 x204 -1 x216 -1 x228 -1 x240 -1 x252 -1 x264 -1 x276 -1 x288 -1 x300 >= -10;
+1 x85 +1 x97 +1 x109 +1 x121 +1 x133 +1 x145 +1 x157 +1 x169 +1 x181 +1 x193 +1 x205 +1 x217 +1 x229 +1 x241 +1 x253 +1 x265 +1 x277 +1 x289 +1 x301 >= 9;
-1 x85 -1 x97 -1 x109 -1 x121 -1 x133 -1 x145 -1 x157 -1 x169 -1 x181 -1 x193 -1 x205 -1 x217 -1 x229 -1 x241 -1 x253 -1 x265 -1 x277 -1 x289 -1 x301 >= -10;
+1 x86 +1 x98 +1 x110 +1 x122 +1 x134 +1 x146 +1 x158 +1 x170 +1 x182 +1 x194 +1 x206 +1 x218 +1 x230 +1 x242 +1 x254 +1 x266 +1 x278 +1 x290 +1 x302 >= 9;
-1 x86 -1 x98 -1 x110 -1 x122 -1 x134 -1 x146 -1 x158 -1 x170 -1 x182 -1 x194 -1 x206 -1 x218 -1 x230 -1 x242 -1 x254 -1 x266 -1 x278 -1 x290 -1 x302 >= -10;
+1 x87 +1 x99 +1 x111 +1 x123 +1 x135 +1 x147 +1 x159 +1 x171 +1 x183 +1 x195 +1 x207 +1 x219 +1 x231 +1 x243 +1 x255 +1 x267 +1 x279 +1 x291 +1 x303 >= 9;
-1 x87 -1 x99 -1 x111 -1 x123 -1 x135 -1 x147 -1 x159 -1 x171 -1 x183 -1 x195 -1 x207 -1 x219 -1 x231 -1 x243 -1 x255 -1 x267 -1 x279 -1 x291 -1 x303 >= -10;
+1 x88 +1 x100 +1 x112 +1 x124 +1 x136 +1 x148 +1 x160 +1 x172 +1 x184 +1 x196 +1 x208 +1 x220 +1 x232 +1 x244 +1 x256 +1 x268 +1 x280 +1 x292 +1 x304 >= 9;
-1 x88 -1 x100 -1 x112 -1 x124 -1 x136 -1 x148 -1 x160 -1 x172 -1 x184 -1 x196 -1 x208 -1 x220 -1 x232 -1 x244 -1 x256 -1 x268 -1 x280 -1 x292 -1 x304 >= -10;
+1 x89 +1 x101 +1 x113 +1 x125 +1 x137 +1 x149 +1 x161 +1 x173 +1 x185 +1 x197 +1 x209 +1 x221 +1 x233 +1 x245 +1 x257 +1 x269 +1 x281 +1 x293 +1 x305 >= 9;
-1 x89 -1 x101 -1 x113 -1 x125 -1 x137 -1 x149 -1 x161 -1 x173 -1 x185 -1 x197 -1 x209 -1 x221 -1 x233 -1 x245 -1 x257 -1 x269 -1 x281 -1 x293 -1 x305 >= -10;
+1 x90 +1 x102 +1 x114 +1 x126 +1 x138 +1 x150 +1 x162 +1 x174 +1 x186 +1 x198 +1 x210 +1 x222 +1 x234 +1 x246 +1 x258 +1 x270 +1 x282 +1 x294 +1 x306 >= 9;
-1 x90 -1 x102 -1 x114 -1 x126 -1 x138 -1 x150 -1 x162 -1 x174 -1 x186 -1 x198 -1 x210 -1 x222 -1 x234 -1 x246 -1 x258 -1 x270 -1 x282 -1 x294 -1 x306 >= -10;
+1 x91 +1 x103 +1 x115 +1 x127 +1 x139 +1 x151 +1 x163 +1 x175 +1 x187 +1 x199 +1 x211 +1 x223 +1 x235 +1 x247 +1 x259 +1 x271 +1 x283 +1 x295 +1 x307 >= 9;
-1 x91 -1 x103 -1 x115 -1 x127 -1 x139 -1 x151 -1 x163 -1 x175 -1 x187 -1 x199 -1 x211 -1 x223 -1 x235 -1 x247 -1 x259 -1 x271 -1 x283 -1 x295 -1 x307 >= -10;
+1 x92 +1 x104 +1 x116 +1 x128 +1 x140 +1 x152 +1 x164 +1 x176 +1 x188 +1 x200 +1 x212 +1 x224 +1 x236 +1 x248 +1 x260 +1 x272 +1 x284 +1 x296 +1 x308 >= 9;
-1 x92 -1 x104 -1 x116 -1 x128 -1 x140 -1 x152 -1 x164 -1 x176 -1 x188 -1 x200 -1 x212 -1 x224 -1 x236 -1 x248 -1 x260 -1 x272 -1 x284 -1 x296 -1 x308 >= -10;
+1 x93 +1 x105 +1 x117 +1 x129 +1 x141 +1 x153 +1 x165 +1 x177 +1 x189 +1 x201 +1 x213 +1 x225 +1 x237 +1 x249 +1 x261 +1 x273 +1 x285 +1 x297 +1 x309 >= 9;
-1 x93 -1 x105 -1 x117 -1 x129 -1 x141 -1 x153 -1 x165 -1 x177 -1 x189 -1 x201 -1 x213 -1 x225 -1 x237 -1 x249 -1 x261 -1 x273 -1 x285 -1 x297 -1 x309 >= -10;
+1 x94 +1 x106 +1 x118 +1 x130 +1 x142 +1 x154 +1 x166 +1 x178 +1 x190 +1 x202 +1 x214 +1 x226 +1 x238 +1 x250 +1 x262 +1 x274 +1 x286 +1 x298 +1 x310 >= 9;
-1 x94 -1 x106 -1 x118 -1 x130 -1 x142 -1 x154 -1 x166 -1 x178 -1 x190 -1 x202 -1 x214 -1 x226 -1 x238 -1 x250 -1 x262 -1 x274 -1 x286 -1 x298 -1 x310 >= -10;
+1 x95 +1 x107 +1 x119 +1 x131 +1 x143 +1 x155 +1 x167 +1 x179 +1 x191 +1 x203 +1 x215 +1 x227 +1 x239 +1 x251 +1 x263 +1 x275 +1 x287 +1 x299 +1 x311 >= 9;
-1 x95 -1 x107 -1 x119 -1 x131 -1 x143 -1 x155 -1 x167 -1 x179 -1 x191 -1 x203 -1 x215 -1 x227 -1 x239 -1 x251 -1 x263 -1 x275 -1 x287 -1 x299 -1 x311 >= -10;
+1 x96 +1 x108 +1 x120 +1 x132 +1 x144 +1 x156 +1 x168 +1 x180 +1 x192 +1 x204 +1 x216 +1 x228 +1 x240 +1 x252 +1 x264 +1 x276 +1 x288 +1 x300 +1 x312 >= 9;
-1 x96 -1 x108 -1 x120 -1 x132 -1 x144 -1 x156 -1 x168 -1 x180 -1 x192 -1 x204 -1 x216 -1 x228 -1 x240 -1 x252 -1 x264 -1 x276 -1 x288 -1 x300 -1 x312 >= -10;
+1 x97 +1 x109 +1 x121 +1 x133 +1 x145 +1 x157 +1 x169 +1 x181 +1 x193 +1 x205 +1 x217 +1 x229 +1 x241 +1 x253 +1 x265 +1 x277 +1 x289 +1 x301 +1 x313 >= 9;
-1 x97 -1 x109 -1 x121 -1 x133 -1 x145 -1 x157 -1 x169 -1 x181 -1 x193 -1 x205 -1 x217 -1 x229 -1 x241 -1 x253 -1 x265 -1 x277 -1 x289 -1 x301 -1 x313 >= -10;
+1 x98 +1 x110 +1 x122 +1 x134 +1 x146 +1 x158 +1 x170 +1 x182 +1 x194 +1 x206 +1 x218 +1 x230 +1 x242 +1 x254 +1 x266 +1 x278 +1 x290 +1 x302 +1 x314 >= 9;
-1 x98 -1 x110 -1 x122 -1 x134 -1 x146 -1 x158 -1 x170 -1 x182 -1 x194 -1 x206 -1 x218 -1 x230 -1 x242 -1 x254 -1 x266 -1 x278 -1 x290 -1 x302 -1 x314 >= -10;
+1 x99 +1 x111 +1 x123 +1 x135 +1 x147 +1 x159 +1 x171 +1 x183 +1 x195 +1 x207 +1 x219 +1 x231 +1 x243 +1 x255 +1 x267 +1 x279 +1 x291 +1 x303 +1 x315 >= 9;
-1 x99 -1 x111 -1 x123 -1 x135 -1 x147 -1 x159 -1 x171 -1 x183 -1 x195 -1 x207 -1 x219 -1 x231 -1 x243 -1 x255 -1 x267 -1 x279 -1 x291 -1 x303 -1 x315 >= -10;
+1 x100 +1 x112 +1 x124 +1 x136 +1 x148 +1 x160 +1 x172 +1 x184 +1 x196 +1 x208 +1 x220 +1 x232 +1 x244 +1 x256 +1 x268 +1 x280 +1 x292 +1 x304 +1 x316 >= 9;
-1 x100 -1 x112 -1 x124 -1 x136 -1 x148 -1 x160 -1 x172 -1 x184 -1 x196 -1 x208 -1 x220 -1 x232 -1 x244 -1 x256 -1 x268 -1 x280 -1 x292 -1 x304 -1 x316 >= -10;
+1 x101 +1 x113 +1 x125 +1 x137 +1 x149 +1 x161 +1 x173 +1 x185 +1 x197 +1 x209 +1 x221 +1 x233 +1 x245 +1 x257 +1 x269 +1 x281 +1 x293 +1 x305 +1 x317 >= 9;
-1 x101 -1 x113 -1 x125 -1 x137 -1 x149 -1 x161 -1 x173 -1 x185 -1 x197 -1 x209 -1 x221 -1 x233 -1 x245 -1 x257 -1 x269 -1 x281 -1 x293 -1 x305 -1 x317 >= -10;
+1 x102 +1 x114 +1 x126 +1 x138 +1 x150 +1 x162 +1 x174 +1 x186 +1 x198 +1 x210 +1 x222 +1 x234 +1 x246 +1 x258 +1 x270 +1 x282 +1 x294 +1 x306 +1 x318 >= 9;
-1 x102 -1 x114 -1 x126 -1 x138 -1 x150 -1 x162 -1 x174 -1 x186 -1 x198 -1 x210 -1 x222 -1 x234 -1 x246 -1 x258 -1 x270 -1 x282 -1 x294 -1 x306 -1 x318 >= -10;
+1 x103 +1 x115 +1 x127 +1 x139 +1 x151 +1 x163 +1 x175 +1 x187 +1 x199 +1 x211 +1 x223 +1 x235 +1 x247 +1 x259 +1 x271 +1 x283 +1 x295 +1 x307 +1 x319 >= 9;
-1 x103 -1 x115 -1 x127 -1 x139 -1 x151 -1 x163 -1 x175 -1 x187 -1 x199 -1 x211 -1 x223 -1 x235 -1 x247 -1 x259 -1 x271 -1 x283 -1 x295 -1 x307 -1 x319 >= -10;
+1 x104 +1 x116 +1 x128 +1 x140 +1 x152 +1 x164 +1 x176 +1 x188 +1 x200 +1 x212 +1 x224 +1 x236 +1 x248 +1 x260 +1 x272 +1 x284 +1 x296 +1 x308 +1 x320 >= 9;
-1 x104 -1 x116 -1 x128 -1 x140 -1 x152 -1 x164 -1 x176 -1 x188 -1 x200 -1 x212 -1 x224 -1 x236 -1 x248 -1 x260 -1 x272 -1 x284 -1 x296 -1 x308 -1 x320 >= -10;
+1 x105 +1 x117 +1 x129 +1 x141 +1 x153 +1 x165 +1 x177 +1 x189 +1 x201 +1 x213 +1 x225 +1 x237 +1 x249 +1 x261 +1 x273 +1 x285 +1 x297 +1 x309 +1 x321 >= 9;
-1 x105 -1 x117 -1 x129 -1 x141 -1 x153 -1 x165 -1 x177 -1 x189 -1 x201 -1 x213 -1 x225 -1 x237 -1 x249 -1 x261 -1 x273 -1 x285 -1 x297 -1 x309 -1 x321 >= -10;
+1 x106 +1 x118 +1 x130 +1 x142 +1 x154 +1 x166 +1 x178 +1 x190 +1 x202 +1 x214 +1 x226 +1 x238 +1 x250 +1 x262 +1 x274 +1 x286 +1 x298 +1 x310 +1 x322 >= 9;
-1 x106 -1 x118 -1 x130 -1 x142 -1 x154 -1 x166 -1 x178 -1 x190 -1 x202 -1 x214 -1 x226 -1 x238 -1 x250 -1 x262 -1 x274 -1 x286 -1 x298 -1 x310 -1 x322 >= -10;
+1 x107 +1 x119 +1 x131 +1 x143 +1 x155 +1 x167 +1 x179 +1 x191 +1 x203 +1 x215 +1 x227 +1 x239 +1 x251 +1 x263 +1 x275 +1 x287 +1 x299 +1 x311 +1 x323 >= 9;
-1 x107 -1 x119 -1 x131 -1 x143 -1 x155 -1 x167 -1 x179 -1 x191 -1 x203 -1 x215 -1 x227 -1 x239 -1 x251 -1 x263 -1 x275 -1 x287 -1 x299 -1 x311 -1 x323 >= -10;
+1 x108 +1 x120 +1 x132 +1 x144 +1 x156 +1 x168 +1 x180 +1 x192 +1 x204 +1 x216 +1 x228 +1 x240 +1 x252 +1 x264 +1 x276 +1 x288 +1 x300 +1 x312 +1 x324 >= 9;
-1 x108 -1 x120 -1 x132 -1 x144 -1 x156 -1 x168 -1 x180 -1 x192 -1 x204 -1 x216 -1 x228 -1 x240 -1 x252 -1 x264 -1 x276 -1 x288 -1 x300 -1 x312 -1 x324 >= -10;
+1 x109 +1 x121 +1 x133 +1 x145 +1 x157 +1 x169 +1 x181 +1 x193 +1 x205 +1 x217 +1 x229 +1 x241 +1 x253 +1 x265 +1 x277 +1 x289 +1 x301 +1 x313 +1 x325 >= 9;
-1 x109 -1 x121 -1 x133 -1 x145 -1 x157 -1 x169 -1 x181 -1 x193 -1 x205 -1 x217 -1 x229 -1 x241 -1 x253 -1 x265 -1 x277 -1 x289 -1 x301 -1 x313 -1 x325 >= -10;
+1 x110 +1 x122 +1 x134 +1 x146 +1 x158 +1 x170 +1 x182 +1 x194 +1 x206 +1 x218 +1 x230 +1 x242 +1 x254 +1 x266 +1 x278 +1 x290 +1 x302 +1 x314 +1 x326 >= 9;
-1 x110 -1 x122 -1 x134 -1 x146 -1 x158 -1 x170 -1 x182 -1 x194 -1 x206 -1 x218 -1 x230 -1 x242 -1 x254 -1 x266 -1 x278 -1 x290 -1 x302 -1 x314 -1 x326 >= -10;
+1 x111 +1 x123 +1 x135 +1 x147 +1 x159 +1 x171 +1 x183 +1 x195 +1 x207 +1 x219 +1 x231 +1 x243 +1 x255 +1 x267 +1 x279 +1 x291 +1 x303 +1 x315 +1 x327 >= 9;
-1 x111 -1 x123 -1 x135 -1 x147 -1 x159 -1 x171 -1 x183 -1 x195 -1 x207 -1 x219 -1 x231 -1 x243 -1 x255 -1 x267 -1 x279 -1 x291 -1 x303 -1 x315 -1 x327 >= -10;
+1 x112 +1 x124 +1 x136 +1 x148 +1 x160 +1 x172 +1 x184 +1 x196 +1 x208 +1 x220 +1 x232 +1 x244 +1 x256 +1 x268 +1 x280 +1 x292 +1 x304 +1 x316 +1 x328 >= 9;
-1 x112 -1 x124 -1 x136 -1 x148 -1 x160 -1 x172 -1 x184 -1 x196 -1 x208 -1 x220 -1 x232 -1 x244 -1 x256 -1 x268 -1 x280 -1 x292 -1 x304 -1 x316 -1 x328 >= -10;
+1 x113 +1 x125 +1 x137 +1 x149 +1 x161 +1 x173 +1 x185 +1 x197 +1 x209 +1 x221 +1 x233 +1 x245 +1 x257 +1 x269 +1 x281 +1 x293 +1 x305 +1 x317 +1 x329 >= 9;
-1 x113 -1 x125 -1 x137 -1 x149 -1 x161 -1 x173 -1 x185 -1 x197 -1 x209 -1 x221 -1 x233 -1 x245 -1 x257 -1 x269 -1 x281 -1 x293 -1 x305 -1 x317 -1 x329 >= -10;
+1 x114 +1 x126 +1 x138 +1 x150 +1 x162 +1 x174 +1 x186 +1 x198 +1 x210 +1 x222 +1 x234 +1 x246 +1 x258 +1 x270 +1 x282 +1 x294 +1 x306 +1 x318 +1 x330 >= 9;
-1 x114 -1 x126 -1 x138 -1 x150 -1 x162 -1 x174 -1 x186 -1 x198 -1 x210 -1 x222 -1 x234 -1 x246 -1 x258 -1 x270 -1 x282 -1 x294 -1 x306 -1 x318 -1 x330 >= -10;
+1 x115 +1 x127 +1 x139 +1 x151 +1 x163 +1 x175 +1 x187 +1 x199 +1 x211 +1 x223 +1 x235 +1 x247 +1 x259 +1 x271 +1 x283 +1 x295 +1 x307 +1 x319 +1 x331 >= 9;
-1 x115 -1 x127 -1 x139 -1 x151 -1 x163 -1 x175 -1 x187 -1 x199 -1 x211 -1 x223 -1 x235 -1 x247 -1 x259 -1 x271 -1 x283 -1 x295 -1 x307 -1 x319 -1 x331 >= -10;
+1 x116 +1 x128 +1 x140 +1 x152 +1 x164 +1 x176 +1 x188 +1 x200 +1 x212 +1 x224 +1 x236 +1 x248 +1 x260 +1 x272 +1 x284 +1 x296 +1 x308 +1 x320 +1 x332 >= 9;
-1 x116 -1 x128 -1 x140 -1 x152 -1 x164 -1 x176 -1 x188 -1 x200 -1 x212 -1 x224 -1 x236 -1 x248 -1 x260 -1 x272 -1 x284 -1 x296 -1 x308 -1 x320 -1 x332 >= -10;
+1 x117 +1 x129 +1 x141 +1 x153 +1 x165 +1 x177 +1 x189 +1 x201 +1 x213 +1 x225 +1 x237 +1 x249 +1 x261 +1 x273 +1 x285 +1 x297 +1 x309 +1 x321 +1 x333 >= 9;
-1 x117 -1 x129 -1 x141 -1 x153 -1 x165 -1 x177 -1 x189 -1 x201 -1 x213 -1 x225 -1 x237 -1 x249 -1 x261 -1 x273 -1 x285 -1 x297 -1 x309 -1 x321 -1 x333 >= -10;
+1 x118 +1 x130 +1 x142 +1 x154 +1 x166 +1 x178 +1 x190 +1 x202 +1 x214 +1 x226 +1 x238 +1 x250 +1 x262 +1 x274 +1 x286 +1 x298 +1 x310 +1 x322 +1 x334 >= 9;
-1 x118 -1 x130 -1 x142 -1 x154 -1 x166 -1 x178 -1 x190 -1 x202 -1 x214 -1 x226 -1 x238 -1 x250 -1 x262 -1 x274 -1 x286 -1 x298 -1 x310 -1 x322 -1 x334 >= -10;
+1 x119 +1 x131 +1 x143 +1 x155 +1 x167 +1 x179 +1 x191 +1 x203 +1 x215 +1 x227 +1 x239 +1 x251 +1 x263 +1 x275 +1 x287 +1 x299 +1 x311 +1 x323 +1 x335 >= 9;
-1 x119 -1 x131 -1 x143 -1 x155 -1 x167 -1 x179 -1 x191 -1 x203 -1 x215 -1 x227 -1 x239 -1 x251 -1 x263 -1 x275 -1 x287 -1 x299 -1 x311 -1 x323 -1 x335 >= -10;
+1 x120 +1 x132 +1 x144 +1 x156 +1 x168 +1 x180 +1 x192 +1 x204 +1 x216 +1 x228 +1 x240 +1 x252 +1 x264 +1 x276 +1 x288 +1 x300 +1 x312 +1 x324 +1 x336 >= 9;
-1 x120 -1 x132 -1 x144 -1 x156 -1 x168 -1 x180 -1 x192 -1 x204 -1 x216 -1 x228 -1 x240 -1 x252 -1 x264 -1 x276 -1 x288 -1 x300 -1 x312 -1 x324 -1 x336 >= -10;
+1 x121 +1 x133 +1 x145 +1 x157 +1 x169 +1 x181 +1 x193 +1 x205 +1 x217 +1 x229 +1 x241 +1 x253 +1 x265 +1 x277 +1 x289 +1 x301 +1 x313 +1 x325 +1 x337 >= 9;
-1 x121 -1 x133 -1 x145 -1 x157 -1 x169 -1 x181 -1 x193 -1 x205 -1 x217 -1 x229 -1 x241 -1 x253 -1 x265 -1 x277 -1 x289 -1 x301 -1 x313 -1 x325 -1 x337 >= -10;
+1 x122 +1 x134 +1 x146 +1 x158 +1 x170 +1 x182 +1 x194 +1 x206 +1 x218 +1 x230 +1 x242 +1 x254 +1 x266 +1 x278 +1 x290 +1 x302 +1 x314 +1 x326 +1 x338 >= 9;
-1 x122 -1 x134 -1 x146 -1 x158 -1 x170 -1 x182 -1 x194 -1 x206 -1 x218 -1 x230 -1 x242 -1 x254 -1 x266 -1 x278 -1 x290 -1 x302 -1 x314 -1 x326 -1 x338 >= -10;
+1 x123 +1 x135 +1 x147 +1 x159 +1 x171 +1 x183 +1 x195 +1 x207 +1 x219 +1 x231 +1 x243 +1 x255 +1 x267 +1 x279 +1 x291 +1 x303 +1 x315 +1 x327 +1 x339 >= 9;
-1 x123 -1 x135 -1 x147 -1 x159 -1 x171 -1 x183 -1 x195 -1 x207 -1 x219 -1 x231 -1 x243 -1 x255 -1 x267 -1 x279 -1 x291 -1 x303 -1 x315 -1 x327 -1 x339 >= -10;
+1 x124 +1 x136 +1 x148 +1 x160 +1 x172 +1 x184 +1 x196 +1 x208 +1 x220 +1 x232 +1 x244 +1 x256 +1 x268 +1 x280 +1 x292 +1 x304 +1 x316 +1 x328 +1 x340 >= 9;
-1 x124 -1 x136 -1 x148 -1 x160 -1 x172 -1 x184 -1 x196 -1 x208 -1 x220 -1 x232 -1 x244 -1 x256 -1 x268 -1 x280 -1 x292 -1 x304 -1 x316 -1 x328 -1 x340 >= -10;
+1 x125 +1 x137 +1 x149 +1 x161 +1 x173 +1 x185 +1 x197 +1 x209 +1 x221 +1 x233 +1 x245 +1 x257 +1 x269 +1 x281 +1 x293 +1 x305 +1 x317 +1 x329 +1 x341 >= 9;
-1 x125 -1 x137 -1 x149 -1 x161 -1 x173 -1 x185 -1 x197 -1 x209 -1 x221 -1 x233 -1 x245 -1 x257 -1 x269 -1 x281 -1 x293 -1 x305 -1 x317 -1 x329 -1 x341 >= -10;
+1 x126 +1 x138 +1 x150 +1 x162 +1 x174 +1 x186 +1 x198 +1 x210 +1 x222 +1 x234 +1 x246 +1 x258 +1 x270 +1 x282 +1 x294 +1 x306 +1 x318 +1 x330 +1 x342 >= 9;
-1 x126 -1 x138 -1 x150 -1 x162 -1 x174 -1 x186 -1 x198 -1 x210 -1 x222 -1 x234 -1 x246 -1 x258 -1 x270 -1 x282 -1 x294 -1 x306 -1 x318 -1 x330 -1 x342 >= -10;
+1 x127 +1 x139 +1 x151 +1 x163 +1 x175 +1 x187 +1 x199 +1 x211 +1 x223 +1 x235 +1 x247 +1 x259 +1 x271 +1 x283 +1 x295 +1 x307 +1 x319 +1 x331 +1 x343 >= 9;
-1 x127 -1 x139 -1 x151 -1 x163 -1 x175 -1 x187 -1 x199 -1 x211 -1 x223 -1 x235 -1 x247 -1 x259 -1 x271 -1 x283 -1 x295 -1 x307 -1 x319 -1 x331 -1 x343 >= -10;
+1 x128 +1 x140 +1 x152 +1 x164 +1 x176 +1 x188 +1 x200 +1 x212 +1 x224 +1 x236 +1 x248 +1 x260 +1 x272 +1 x284 +1 x296 +1 x308 +1 x320 +1 x332 +1 x344 >= 9;
-1 x128 -1 x140 -1 x152 -1 x164 -1 x176 -1 x188 -1 x200 -1 x212 -1 x224 -1 x236 -1 x248 -1 x260 -1 x272 -1 x284 -1 x296 -1 x308 -1 x320 -1 x332 -1 x344 >= -10;
+1 x1 +1 x14 +1 x27 +1 x40 +1 x53 +1 x66 +1 x79 +1 x92 +1 x105 +1 x118 +1 x131 +1 x144 +1 x157 +1 x170 +1 x183 +1 x196 +1 x209 +1 x222 +1 x235 >= 9;
-1 x1 -1 x14 -1 x27 -1 x40 -1 x53 -1 x66 -1 x79 -1 x92 -1 x105 -1 x118 -1 x131 -1 x144 -1 x157 -1 x170 -1 x183 -1 x196 -1 x209 -1 x222 -1 x235 >= -10;
+1 x2 +1 x15 +1 x28 +1 x41 +1 x54 +1 x67 +1 x80 +1 x93 +1 x106 +1 x119 +1 x132 +1 x145 +1 x158 +1 x171 +1 x184 +1 x197 +1 x210 +1 x223 +1 x236 >= 9;
-1 x2 -1 x15 -1 x28 -1 x41 -1 x54 -1 x67 -1 x80 -1 x93 -1 x106 -1 x119 -1 x132 -1 x145 -1 x158 -1 x171 -1 x184 -1 x197 -1 x210 -1 x223 -1 x236 >= -10;
+1 x3 +1 x16 +1 x29 +1 x42 +1 x55 +1 x68 +1 x81 +1 x94 +1 x107 +1 x120 +1 x133 +1 x146 +1 x159 +1 x172 +1 x185 +1 x198 +1 x211 +1 x224 +1 x237 >= 9;
-1 x3 -1 x16 -1 x29 -1 x42 -1 x55 -1 x68 -1 x81 -1 x94 -1 x107 -1 x120 -1 x133 -1 x146 -1 x159 -1 x172 -1 x185 -1 x198 -1 x211 -1 x224 -1 x237 >= -10;
+1 x4 +1 x17 +1 x30 +1 x43 +1 x56 +1 x69 +1 x82 +1 x95 +1 x108 +1 x121 +1 x134 +1 x147 +1 x160 +1 x173 +1 x186 +1 x199 +1 x212 +1 x225 +1 x238 >= 9;
-1 x4 -1 x17 -1 x30 -1 x43 -1 x56 -1 x69 -1 x82 -1 x95 -1 x108 -1 x121 -1 x134 -1 x147 -1 x160 -1 x173 -1 x186 -1 x199 -1 x212 -1 x225 -1 x238 >= -10;
+1 x5 +1 x18 +1 x31 +1 x44 +1 x57 +1 x70 +1 x83 +1 x96 +1 x109 +1 x122 +1 x135 +1 x148 +1 x161 +1 x174 +1 x187 +1 x200 +1 x213 +1 x226 +1 x239 >= 9;
-1 x5 -1 x18 -1 x31 -1 x44 -1 x57 -1 x70 -1 x83 -1 x96 -1 x109 -1 x122 -1 x135 -1 x148 -1 x161 -1 x174 -1 x187 -1 x200 -1 x213 -1 x226 -1 x239 >= -10;
+1 x6 +1 x19 +1 x32 +1 x45 +1 x58 +1 x71 +1 x84 +1 x97 +1 x110 +1 x123 +1 x136 +1 x149 +1 x162 +1 x175 +1 x188 +1 x201 +1 x214 +1 x227 +1 x240 >= 9;
-1 x6 -1 x19 -1 x32 -1 x45 -1 x58 -1 x71 -1 x84 -1 x97 -1 x110 -1 x123 -1 x136 -1 x149 -1 x162 -1 x175 -1 x188 -1 x201 -1 x214 -1 x227 -1 x240 >= -10;
+1 x7 +1 x20 +1 x33 +1 x46 +1 x59 +1 x72 +1 x85 +1 x98 +1 x111 +1 x124 +1 x137 +1 x150 +1 x163 +1 x176 +1 x189 +1 x202 +1 x215 +1 x228 +1 x241 >= 9;
-1 x7 -1 x20 -1 x33 -1 x46 -1 x59 -1 x72 -1 x85 -1 x98 -1 x111 -1 x124 -1 x137 -1 x150 -1 x163 -1 x176 -1 x189 -1 x202 -1 x215 -1 x228 -1 x241 >= -10;
+1 x8 +1 x21 +1 x34 +1 x47 +1 x60 +1 x73 +1 x86 +1 x99 +1 x112 +1 x125 +1 x138 +1 x151 +1 x164 +1 x177 +1 x190 +1 x203 +1 x216 +1 x229 +1 x242 >= 9;
-1 x8 -1 x21 -1 x34 -1 x47 -1 x60 -1 x73 -1 x86 -1 x99 -1 x112 -1 x125 -1 x138 -1 x151 -1 x164 -1 x177 -1 x190 -1 x203 -1 x216 -1 x229 -1 x242 >= -10;
+1 x9 +1 x22 +1 x35 +1 x48 +1 x61 +1 x74 +1 x87 +1 x100 +1 x113 +1 x126 +1 x139 +1 x152 +1 x165 +1 x178 +1 x191 +1 x204 +1 x217 +1 x230 +1 x243 >= 9;
-1 x9 -1 x22 -1 x35 -1 x48 -1 x61 -1 x74 -1 x87 -1 x100 -1 x113 -1 x126 -1 x139 -1 x152 -1 x165 -1 x178 -1 x191 -1 x204 -1 x217 -1 x230 -1 x243 >= -10;
+1 x10 +1 x23 +1 x36 +1 x49 +1 x62 +1 x75 +1 x88 +1 x101 +1 x114 +1 x127 +1 x140 +1 x153 +1 x166 +1 x179 +1 x192 +1 x205 +1 x218 +1 x231 +1 x244 >= 9;
-1 x10 -1 x23 -1 x36 -1 x49 -1 x62 -1 x75 -1 x88 -1 x101 -1 x114 -1 x127 -1 x140 -1 x153 -1 x166 -1 x179 -1 x192 -1 x205 -1 x218 -1 x231 -1 x244 >= -10;
+1 x11 +1 x24 +1 x37 +1 x50 +1 x63 +1 x76 +1 x89 +1 x102 +1 x115 +1 x128 +1 x141 +1 x154 +1 x167 +1 x180 +1 x193 +1 x206 +1 x219 +1 x232 +1 x245 >= 9;
-1 x11 -1 x24 -1 x37 -1 x50 -1 x63 -1 x76 -1 x89 -1 x102 -1 x115 -1 x128 -1 x141 -1 x154 -1 x167 -1 x180 -1 x193 -1 x206 -1 x219 -1 x232 -1 x245 >= -10;
+1 x12 +1 x25 +1 x38 +1 x51 +1 x64 +1 x77 +1 x90 +1 x103 +1 x116 +1 x129 +1 x142 +1 x155 +1 x168 +1 x181 +1 x194 +1 x207 +1 x220 +1 x233 +1 x246 >= 9;
-1 x12 -1 x25 -1 x38 -1 x51 -1 x64 -1 x77 -1 x90 -1 x103 -1 x116 -1 x129 -1 x142 -1 x155 -1 x168 -1 x181 -1 x194 -1 x207 -1 x220 -1 x233 -1 x246 >= -10;
+1 x13 +1 x26 +1 x39 +1 x52 +1 x65 +1 x78 +1 x91 +1 x104 +1 x117 +1 x130 +1 x143 +1 x156 +1 x169 +1 x182 +1 x195 +1 x208 +1 x221 +1 x234 +1 x247 >= 9;
-1 x13 -1 x26 -1 x39 -1 x52 -1 x65 -1 x78 -1 x91 -1 x104 -1 x117 -1 x130 -1 x143 -1 x156 -1 x169 -1 x182 -1 x195 -1 x208 -1 x221 -1 x234 -1 x247 >= -10;
+1 x14 +1 x27 +1 x40 +1 x53 +1 x66 +1 x79 +1 x92 +1 x105 +1 x118 +1 x131 +1 x144 +1 x157 +1 x170 +1 x183 +1 x196 +1 x209 +1 x222 +1 x235 +1 x248 >= 9;
-1 x14 -1 x27 -1 x40 -1 x53 -1 x66 -1 x79 -1 x92 -1 x105 -1 x118 -1 x131 -1 x144 -1 x157 -1 x170 -1 x183 -1 x196 -1 x209 -1 x222 -1 x235 -1 x248 >= -10;
+1 x15 +1 x28 +1 x41 +1 x54 +1 x67 +1 x80 +1 x93 +1 x106 +1 x119 +1 x132 +1 x145 +1 x158 +1 x171 +1 x184 +1 x197 +1 x210 +1 x223 +1 x236 +1 x249 >= 9;
-1 x15 -1 x28 -1 x41 -1 x54 -1 x67 -1 x80 -1 x93 -1 x106 -1 x119 -1 x132 -1 x145 -1 x158 -1 x171 -1 x184 -1 x197 -1 x210 -1 x223 -1 x236 -1 x249 >= -10;
+1 x16 +1 x29 +1 x42 +1 x55 +1 x68 +1 x81 +1 x94 +1 x107 +1 x120 +1 x133 +1 x146 +1 x159 +1 x172 +1 x185 +1 x198 +1 x211 +1 x224 +1 x237 +1 x250 >= 9;
-1 x16 -1 x29 -1 x42 -1 x55 -1 x68 -1 x81 -1 x94 -1 x107 -1 x120 -1 x133 -1 x146 -1 x159 -1 x172 -1 x185 -1 x198 -1 x211 -1 x224 -1 x237 -1 x250 >= -10;
+1 x17 +1 x30 +1 x43 +1 x56 +1 x69 +1 x82 +1 x95 +1 x108 +1 x121 +1 x134 +1 x147 +1 x160 +1 x173 +1 x186 +1 x199 +1 x212 +1 x225 +1 x238 +1 x251 >= 9;
-1 x17 -1 x30 -1 x43 -1 x56 -1 x69 -1 x82 -1 x95 -1 x108 -1 x121 -1 x134 -1 x147 -1 x160 -1 x173 -1 x186 -1 x199 -1 x212 -1 x225 -1 x238 -1 x251 >= -10;
+1 x18 +1 x31 +1 x44 +1 x57 +1 x70 +1 x83 +1 x96 +1 x109 +1 x122 +1 x135 +1 x148 +1 x161 +1 x174 +1 x187 +1 x200 +1 x213 +1 x226 +1 x239 +1 x252 >= 9;
-1 x18 -1 x31 -1 x44 -1 x57 -1 x70 -1 x83 -1 x96 -1 x109 -1 x122 -1 x135 -1 x148 -1 x161 -1 x174 -1 x187 -1 x200 -1 x213 -1 x226 -1 x239 -1 x252 >= -10;
+1 x19 +1 x32 +1 x45 +1 x58 +1 x71 +1 x84 +1 x97 +1 x110 +1 x123 +1 x136 +1 x149 +1 x162 +1 x175 +1 x188 +1 x201 +1 x214 +1 x227 +1 x240 +1 x253 >= 9;
-1 x19 -1 x32 -1 x45 -1 x58 -1 x71 -1 x84 -1 x97 -1 x110 -1 x123 -1 x136 -1 x149 -1 x162 -1 x175 -1 x188 -1 x201 -1 x214 -1 x227 -1 x240 -1 x253 >= -10;
+1 x20 +1 x33 +1 x46 +1 x59 +1 x72 +1 x85 +1 x98 +1 x111 +1 x124 +1 x137 +1 x150 +1 x163 +1 x176 +1 x189 +1 x202 +1 x215 +1 x228 +1 x241 +1 x254 >= 9;
-1 x20 -1 x33 -1 x46 -1 x59 -1 x72 -1 x85 -1 x98 -1 x111 -1 x124 -1 x137 -1 x150 -1 x163 -1 x176 -1 x189 -1 x202 -1 x215 -1 x228 -1 x241 -1 x254 >= -10;
+1 x21 +1 x34 +1 x47 +1 x60 +1 x73 +1 x86 +1 x99 +1 x112 +1 x125 +1 x138 +1 x151 +1 x164 +1 x177 +1 x190 +1 x203 +1 x216 +1 x229 +1 x242 +1 x255 >= 9;
-1 x21 -1 x34 -1 x47 -1 x60 -1 x73 -1 x86 -1 x99 -1 x112 -1 x125 -1 x138 -1 x151 -1 x164 -1 x177 -1 x190 -1 x203 -1 x216 -1 x229 -1 x242 -1 x255 >= -10;
+1 x22 +1 x35 +1 x48 +1 x61 +1 x74 +1 x87 +1 x100 +1 x113 +1 x126 +1 x139 +1 x152 +1 x165 +1 x178 +1 x191 +1 x204 +1 x217 +1 x230 +1 x243 +1 x256 >= 9;
-1 x22 -1 x35 -1 x48 -1 x61 -1 x74 -1 x87 -1 x100 -1 x113 -1 x126 -1 x139 -1 x152 -1 x165 -1 x178 -1 x191 -1 x204 -1 x217 -1 x230 -1 x243 -1 x256 >= -10;
+1 x23 +1 x36 +1 x49 +1 x62 +1 x75 +1 x88 +1 x101 +1 x114 +1 x127 +1 x140 +1 x153 +1 x166 +1 x179 +1 x192 +1 x205 +1 x218 +1 x231 +1 x244 +1 x257 >= 9;
-1 x23 -1 x36 -1 x49 -1 x62 -1 x75 -1 x88 -1 x101 -1 x114 -1 x127 -1 x140 -1 x153 -1 x166 -1 x179 -1 x192 -1 x205 -1 x218 -1 x231 -1 x244 -1 x257 >= -10;
+1 x24 +1 x37 +1 x50 +1 x63 +1 x76 +1 x89 +1 x102 +1 x115 +1 x128 +1 x141 +1 x154 +1 x167 +1 x180 +1 x193 +1 x206 +1 x219 +1 x232 +1 x245 +1 x258 >= 9;
-1 x24 -1 x37 -1 x50 -1 x63 -1 x76 -1 x89 -1 x102 -1 x115 -1 x128 -1 x141 -1 x154 -1 x167 -1 x180 -1 x193 -1 x206 -1 x219 -1 x232 -1 x245 -1 x258 >= -10;
+1 x25 +1 x38 +1 x51 +1 x64 +1 x77 +1 x90 +1 x103 +1 x116 +1 x129 +1 x142 +1 x155 +1 x168 +1 x181 +1 x194 +1 x207 +1 x220 +1 x233 +1 x246 +1 x259 >= 9;
-1 x25 -1 x38 -1 x51 -1 x64 -1 x77 -1 x90 -1 x103 -1 x116 -1 x129 -1 x142 -1 x155 -1 x168 -1 x181 -1 x194 -1 x207 -1 x220 -1 x233 -1 x246 -1 x259 >= -10;
+1 x26 +1 x39 +1 x52 +1 x65 +1 x78 +1 x91 +1 x104 +1 x117 +1 x130 +1 x143 +1 x156 +1 x169 +1 x182 +1 x195 +1 x208 +1 x221 +1 x234 +1 x247 +1 x260 >= 9;
-1 x26 -1 x39 -1 x52 -1 x65 -1 x78 -1 x91 -1 x104 -1 x117 -1 x130 -1 x143 -1 x156 -1 x169 -1 x182 -1 x195 -1 x208 -1 x221 -1 x234 -1 x247 -1 x260 >= -10;
+1 x27 +1 x40 +1 x53 +1 x66 +1 x79 +1 x92 +1 x105 +1 x118 +1 x131 +1 x144 +1 x157 +1 x170 +1 x183 +1 x196 +1 x209 +1 x222 +1 x235 +1 x248 +1 x261 >= 9;
-1 x27 -1 x40 -1 x53 -1 x66 -1 x79 -1 x92 -1 x105 -1 x118 -1 x131 -1 x144 -1 x157 -1 x170 -1 x183 -1 x196 -1 x209 -1 x222 -1 x235 -1 x248 -1 x261 >= -10;
+1 x28 +1 x41 +1 x54 +1 x67 +1 x80 +1 x93 +1 x106 +1 x119 +1 x132 +1 x145 +1 x158 +1 x171 +1 x184 +1 x197 +1 x210 +1 x223 +1 x236 +1 x249 +1 x262 >= 9;
-1 x28 -1 x41 -1 x54 -1 x67 -1 x80 -1 x93 -1 x106 -1 x119 -1 x132 -1 x145 -1 x158 -1 x171 -1 x184 -1 x197 -1 x210 -1 x223 -1 x236 -1 x249 -1 x262 >= -10;
+1 x29 +1 x42 +1 x55 +1 x68 +1 x81 +1 x94 +1 x107 +1 x120 +1 x133 +1 x146 +1 x159 +1 x172 +1 x185 +1 x198 +1 x211 +1 x224 +1 x237 +1 x250 +1 x263 >= 9;
-1 x29 -1 x42 -1 x55 -1 x68 -1 x81 -1 x94 -1 x107 -1 x120 -1 x133 -1 x146 -1 x159 -1 x172 -1 x185 -1 x198 -1 x211 -1 x224 -1 x237 -1 x250 -1 x263 >= -10;
+1 x30 +1 x43 +1 x56 +1 x69 +1 x82 +1 x95 +1 x108 +1 x121 +1 x134 +1 x147 +1 x160 +1 x173 +1 x186 +1 x199 +1 x212 +1 x225 +1 x238 +1 x251 +1 x264 >= 9;
-1 x30 -1 x43 -1 x56 -1 x69 -1 x82 -1 x95 -1 x108 -1 x121 -1 x134 -1 x147 -1 x160 -1 x173 -1 x186 -1 x199 -1 x212 -1 x225 -1 x238 -1 x251 -1 x264 >= -10;
+1 x31 +1 x44 +1 x57 +1 x70 +1 x83 +1 x96 +1 x109 +1 x122 +1 x135 +1 x148 +1 x161 +1 x174 +1 x187 +1 x200 +1 x213 +1 x226 +1 x239 +1 x252 +1 x265 >= 9;
-1 x31 -1 x44 -1 x57 -1 x70 -1 x83 -1 x96 -1 x109 -1 x122 -1 x135 -1 x148 -1 x161 -1 x174 -1 x187 -1 x200 -1 x213 -1 x226 -1 x239 -1 x252 -1 x265 >= -10;
+1 x32 +1 x45 +1 x58 +1 x71 +1 x84 +1 x97 +1 x110 +1 x123 +1 x136 +1 x149 +1 x162 +1 x175 +1 x188 +1 x201 +1 x214 +1 x227 +1 x240 +1 x253 +1 x266 >= 9;
-1 x32 -1 x45 -1 x58 -1 x71 -1 x84 -1 x97 -1 x110 -1 x123 -1 x136 -1 x149 -1 x162 -1 x175 -1 x188 -1 x201 -1 x214 -1 x227 -1 x240 -1 x253 -1 x266 >= -10;
+1 x33 +1 x46 +1 x59 +1 x72 +1 x85 +1 x98 +1 x111 +1 x124 +1 x137 +1 x150 +1 x163 +1 x176 +1 x189 +1 x202 +1 x215 +1 x228 +1 x241 +1 x254 +1 x267 >= 9;
-1 x33 -1 x46 -1 x59 -1 x72 -1 x85 -1 x98 -1 x111 -1 x124 -1 x137 -1 x150 -1 x163 -1 x176 -1 x189 -1 x202 -1 x215 -1 x228 -1 x241 -1 x254 -1 x267 >= -10;
+1 x34 +1 x47 +1 x60 +1 x73 +1 x86 +1 x99 +1 x112 +1 x125 +1 x138 +1 x151 +1 x164 +1 x177 +1 x190 +1 x203 +1 x216 +1 x229 +1 x242 +1 x255 +1 x268 >= 9;
-1 x34 -1 x47 -1 x60 -1 x73 -1 x86 -1 x99 -1 x112 -1 x125 -1 x138 -1 x151 -1 x164 -1 x177 -1 x190 -1 x203 -1 x216 -1 x229 -1 x242 -1 x255 -1 x268 >= -10;
+1 x35 +1 x48 +1 x61 +1 x74 +1 x87 +1 x100 +1 x113 +1 x126 +1 x139 +1 x152 +1 x165 +1 x178 +1 x191 +1 x204 +1 x217 +1 x230 +1 x243 +1 x256 +1 x269 >= 9;
-1 x35 -1 x48 -1 x61 -1 x74 -1 x87 -1 x100 -1 x113 -1 x126 -1 x139 -1 x152 -1 x165 -1 x178 -1 x191 -1 x204 -1 x217 -1 x230 -1 x243 -1 x256 -1 x269 >= -10;
+1 x36 +1 x49 +1 x62 +1 x75 +1 x88 +1 x101 +1 x114 +1 x127 +1 x140 +1 x153 +1 x166 +1 x179 +1 x192 +1 x205 +1 x218 +1 x231 +1 x244 +1 x257 +1 x270 >= 9;
-1 x36 -1 x49 -1 x62 -1 x75 -1 x88 -1 x101 -1 x114 -1 x127 -1 x140 -1 x153 -1 x166 -1 x179 -1 x192 -1 x205 -1 x218 -1 x231 -1 x244 -1 x257 -1 x270 >= -10;
+1 x37 +1 x50 +1 x63 +1 x76 +1 x89 +1 x102 +1 x115 +1 x128 +1 x141 +1 x154 +1 x167 +1 x180 +1 x193 +1 x206 +1 x219 +1 x232 +1 x245 +1 x258 +1 x271 >= 9;
-1 x37 -1 x50 -1 x63 -1 x76 -1 x89 -1 x102 -1 x115 -1 x128 -1 x141 -1 x154 -1 x167 -1 x180 -1 x193 -1 x206 -1 x219 -1 x232 -1 x245 -1 x258 -1 x271 >= -10;
+1 x38 +1 x51 +1 x64 +1 x77 +1 x90 +1 x103 +1 x116 +1 x129 +1 x142 +1 x155 +1 x168 +1 x181 +1 x194 +1 x207 +1 x220 +1 x233 +1 x246 +1 x259 +1 x272 >= 9;
-1 x38 -1 x51 -1 x64 -1 x77 -1 x90 -1 x103 -1 x116 -1 x129 -1 x142 -1 x155 -1 x168 -1 x181 -1 x194 -1 x207 -1 x220 -1 x233 -1 x246 -1 x259 -1 x272 >= -10;
+1 x39 +1 x52 +1 x65 +1 x78 +1 x91 +1 x104 +1 x117 +1 x130 +1 x143 +1 x156 +1 x169 +1 x182 +1 x195 +1 x208 +1 x221 +1 x234 +1 x247 +1 x260 +1 x273 >= 9;
-1 x39 -1 x52 -1 x65 -1 x78 -1 x91 -1 x104 -1 x117 -1 x130 -1 x143 -1 x156 -1 x169 -1 x182 -1 x195 -1 x208 -1 x221 -1 x234 -1 x247 -1 x260 -1 x273 >= -10;
+1 x40 +1 x53 +1 x66 +1 x79 +1 x92 +1 x105 +1 x118 +1 x131 +1 x144 +1 x157 +1 x170 +1 x183 +1 x196 +1 x209 +1 x222 +1 x235 +1 x248 +1 x261 +1 x274 >= 9;
-1 x40 -1 x53 -1 x66 -1 x79 -1 x92 -1 x105 -1 x118 -1 x131 -1 x144 -1 x157 -1 x170 -1 x183 -1 x196 -1 x209 -1 x222 -1 x235 -1 x248 -1 x261 -1 x274 >= -10;
+1 x41 +1 x54 +1 x67 +1 x80 +1 x93 +1 x106 +1 x119 +1 x132 +1 x145 +1 x158 +1 x171 +1 x184 +1 x197 +1 x210 +1 x223 +1 x236 +1 x249 +1 x262 +1 x275 >= 9;
-1 x41 -1 x54 -1 x67 -1 x80 -1 x93 -1 x106 -1 x119 -1 x132 -1 x145 -1 x158 -1 x171 -1 x184 -1 x197 -1 x210 -1 x223 -1 x236 -1 x249 -1 x262 -1 x275 >= -10;
+1 x42 +1 x55 +1 x68 +1 x81 +1 x94 +1 x107 +1 x120 +1 x133 +1 x146 +1 x159 +1 x172 +1 x185 +1 x198 +1 x211 +1 x224 +1 x237 +1 x250 +1 x263 +1 x276 >= 9;
-1 x42 -1 x55 -1 x68 -1 x81 -1 x94 -1 x107 -1 x120 -1 x133 -1 x146 -1 x159 -1 x172 -1 x185 -1 x198 -1 x211 -1 x224 -1 x237 -1 x250 -1 x263 -1 x276 >= -10;
+1 x43 +1 x56 +1 x69 +1 x82 +1 x95 +1 x108 +1 x121 +1 x134 +1 x147 +1 x160 +1 x173 +1 x186 +1 x199 +1 x212 +1 x225 +1 x238 +1 x251 +1 x264 +1 x277 >= 9;
-1 x43 -1 x56 -1 x69 -1 x82 -1 x95 -1 x108 -1 x121 -1 x134 -1 x147 -1 x160 -1 x173 -1 x186 -1 x199 -1 x212 -1 x225 -1 x238 -1 x251 -1 x264 -1 x277 >= -10;
+1 x44 +1 x57 +1 x70 +1 x83 +1 x96 +1 x109 +1 x122 +1 x135 +1 x148 +1 x161 +1 x174 +1 x187 +1 x200 +1 x213 +1 x226 +1 x239 +1 x252 +1 x265 +1 x278 >= 9;
-1 x44 -1 x57 -1 x70 -1 x83 -1 x96 -1 x109 -1 x122 -1 x135 -1 x148 -1 x161 -1 x174 -1 x187 -1 x200 -1 x213 -1 x226 -1 x239 -1 x252 -1 x265 -1 x278 >= -10;
+1 x45 +1 x58 +1 x71 +1 x84 +1 x97 +1 x110 +1 x123 +1 x136 +1 x149 +1 x162 +1 x175 +1 x188 +1 x201 +1 x214 +1 x227 +1 x240 +1 x253 +1 x266 +1 x279 >= 9;
-1 x45 -1 x58 -1 x71 -1 x84 -1 x97 -1 x110 -1 x123 -1 x136 -1 x149 -1 x162 -1 x175 -1 x188 -1 x201 -1 x214 -1 x227 -1 x240 -1 x253 -1 x266 -1 x279 >= -10;
+1 x46 +1 x59 +1 x72 +1 x85 +1 x98 +1 x111 +1 x124 +1 x137 +1 x150 +1 x163 +1 x176 +1 x189 +1 x202 +1 x215 +1 x228 +1 x241 +1 x254 +1 x267 +1 x280 >= 9;
-1 x46 -1 x59 -1 x72 -1 x85 -1 x98 -1 x111 -1 x124 -1 x137 -1 x150 -1 x163 -1 x176 -1 x189 -1 x202 -1 x215 -1 x228 -1 x241 -1 x254 -1 x267 -1 x280 >= -10;
+1 x47 +1 x60 +1 x73 +1 x86 +1 x99 +1 x112 +1 x125 +1 x138 +1 x151 +1 x164 +1 x177 +1 x190 +1 x203 +1 x216 +1 x229 +1 x242 +1 x255 +1 x268 +1 x281 >= 9;
-1 x47 -1 x60 -1 x73 -1 x86 -1 x99 -1 x112 -1 x125 -1 x138 -1 x151 -1 x164 -1 x177 -1 x190 -1 x203 -1 x216 -1 x229 -1 x242 -1 x255 -1 x268 -1 x281 >= -10;
+1 x48 +1 x61 +1 x74 +1 x87 +1 x100 +1 x113 +1 x126 +1 x139 +1 x152 +1 x165 +1 x178 +1 x191 +1 x204 +1 x217 +1 x230 +1 x243 +1 x256 +1 x269 +1 x282 >= 9;
-1 x48 -1 x61 -1 x74 -1 x87 -1 x100 -1 x113 -1 x126 -1 x139 -1 x152 -1 x165 -1 x178 -1 x191 -1 x204 -1 x217 -1 x230 -1 x243 -1 x256 -1 x269 -1 x282 >= -10;
+1 x49 +1 x62 +1 x75 +1 x88 +1 x101 +1 x114 +1 x127 +1 x140 +1 x153 +1 x166 +1 x179 +1 x192 +1 x205 +1 x218 +1 x231 +1 x244 +1 x257 +1 x270 +1 x283 >= 9;
-1 x49 -1 x62 -1 x75 -1 x88 -1 x101 -1 x114 -1 x127 -1 x140 -1 x153 -1 x166 -1 x179 -1 x192 -1 x205 -1 x218 -1 x231 -1 x244 -1 x257 -1 x270 -1 x283 >= -10;
+1 x50 +1 x63 +1 x76 +1 x89 +1 x102 +1 x115 +1 x128 +1 x141 +1 x154 +1 x167 +1 x180 +1 x193 +1 x206 +1 x219 +1 x232 +1 x245 +1 x258 +1 x271 +1 x284 >= 9;
-1 x50 -1 x63 -1 x76 -1 x89 -1 x102 -1 x115 -1 x128 -1 x141 -1 x154 -1 x167 -1 x180 -1 x193 -1 x206 -1 x219 -1 x232 -1 x245 -1 x258 -1 x271 -1 x284 >= -10;
+1 x51 +1 x64 +1 x77 +1 x90 +1 x103 +1 x116 +1 x129 +1 x142 +1 x155 +1 x168 +1 x181 +1 x194 +1 x207 +1 x220 +1 x233 +1 x246 +1 x259 +1 x272 +1 x285 >= 9;
-1 x51 -1 x64 -1 x77 -1 x90 -1 x103 -1 x116 -1 x129 -1 x142 -1 x155 -1 x168 -1 x181 -1 x194 -1 x207 -1 x220 -1 x233 -1 x246 -1 x259 -1 x272 -1 x285 >= -10;
+1 x52 +1 x65 +1 x78 +1 x91 +1 x104 +1 x117 +1 x130 +1 x143 +1 x156 +1 x169 +1 x182 +1 x195 +1 x208 +1 x221 +1 x234 +1 x247 +1 x260 +1 x273 +1 x286 >= 9;
-1 x52 -1 x65 -1 x78 -1 x91 -1 x104 -1 x117 -1 x130 -1 x143 -1 x156 -1 x169 -1 x182 -1 x195 -1 x208 -1 x221 -1 x234 -1 x247 -1 x260 -1 x273 -1 x286 >= -10;
+1 x53 +1 x66 +1 x79 +1 x92 +1 x105 +1 x118 +1 x131 +1 x144 +1 x157 +1 x170 +1 x183 +1 x196 +1 x209 +1 x222 +1 x235 +1 x248 +1 x261 +1 x274 +1 x287 >= 9;
-1 x53 -1 x66 -1 x79 -1 x92 -1 x105 -1 x118 -1 x131 -1 x144 -1 x157 -1 x170 -1 x183 -1 x196 -1 x209 -1 x222 -1 x235 -1 x248 -1 x261 -1 x274 -1 x287 >= -10;
+1 x54 +1 x67 +1 x80 +1 x93 +1 x106 +1 x119 +1 x132 +1 x145 +1 x158 +1 x171 +1 x184 +1 x197 +1 x210 +1 x223 +1 x236 +1 x249 +1 x262 +1 x275 +1 x288 >= 9;
-1 x54 -1 x67 -1 x80 -1 x93 -1 x106 -1 x119 -1 x132 -1 x145 -1 x158 -1 x171 -1 x184 -1 x197 -1 x210 -1 x223 -1 x236 -1 x249 -1 x262 -1 x275 -1 x288 >= -10;
+1 x55 +1 x68 +1 x81 +1 x94 +1 x107 +1 x120 +1 x133 +1 x146 +1 x159 +1 x172 +1 x185 +1 x198 +1 x211 +1 x224 +1 x237 +1 x250 +1 x263 +1 x276 +1 x289 >= 9;
-1 x55 -1 x68 -1 x81 -1 x94 -1 x107 -1 x120 -1 x133 -1 x146 -1 x159 -1 x172 -1 x185 -1 x198 -1 x211 -1 x224 -1 x237 -1 x250 -1 x263 -1 x276 -1 x289 >= -10;
+1 x56 +1 x69 +1 x82 +1 x95 +1 x108 +1 x121 +1 x134 +1 x147 +1 x160 +1 x173 +1 x186 +1 x199 +1 x212 +1 x225 +1 x238 +1 x251 +1 x264 +1 x277 +1 x290 >= 9;
-1 x56 -1 x69 -1 x82 -1 x95 -1 x108 -1 x121 -1 x134 -1 x147 -1 x160 -1 x173 -1 x186 -1 x199 -1 x212 -1 x225 -1 x238 -1 x251 -1 x264 -1 x277 -1 x290 >= -10;
+1 x57 +1 x70 +1 x83 +1 x96 +1 x109 +1 x122 +1 x135 +1 x148 +1 x161 +1 x174 +1 x187 +1 x200 +1 x213 +1 x226 +1 x239 +1 x252 +1 x265 +1 x278 +1 x291 >= 9;
-1 x57 -1 x70 -1 x83 -1 x96 -1 x109 -1 x122 -1 x135 -1 x148 -1 x161 -1 x174 -1 x187 -1 x200 -1 x213 -1 x226 -1 x239 -1 x252 -1 x265 -1 x278 -1 x291 >= -10;
+1 x58 +1 x71 +1 x84 +1 x97 +1 x110 +1 x123 +1 x136 +1 x149 +1 x162 +1 x175 +1 x188 +1 x201 +1 x214 +1 x227 +1 x240 +1 x253 +1 x266 +1 x279 +1 x292 >= 9;
-1 x58 -1 x71 -1 x84 -1 x97 -1 x110 -1 x123 -1 x136 -1 x149 -1 x162 -1 x175 -1 x188 -1 x201 -1 x214 -1 x227 -1 x240 -1 x253 -1 x266 -1 x279 -1 x292 >= -10;
+1 x59 +1 x72 +1 x85 +1 x98 +1 x111 +1 x124 +1 x137 +1 x150 +1 x163 +1 x176 +1 x189 +1 x202 +1 x215 +1 x228 +1 x241 +1 x254 +1 x267 +1 x280 +1 x293 >= 9;
-1 x59 -1 x72 -1 x85 -1 x98 -1 x111 -1 x124 -1 x137 -1 x150 -1 x163 -1 x176 -1 x189 -1 x202 -1 x215 -1 x228 -1 x241 -1 x254 -1 x267 -1 x280 -1 x293 >= -10;
+1 x60 +1 x73 +1 x86 +1 x99 +1 x112 +1 x125 +1 x138 +1 x151 +1 x164 +1 x177 +1 x190 +1 x203 +1 x216 +1 x229 +1 x242 +1 x255 +1 x268 +1 x281 +1 x294 >= 9;
-1 x60 -1 x73 -1 x86 -1 x99 -1 x112 -1 x125 -1 x138 -1 x151 -1 x164 -1 x177 -1 x190 -1 x203 -1 x216 -1 x229 -1 x242 -1 x255 -1 x268 -1 x281 -1 x294 >= -10;
+1 x61 +1 x74 +1 x87 +1 x100 +1 x113 +1 x126 +1 x139 +1 x152 +1 x165 +1 x178 +1 x191 +1 x204 +1 x217 +1 x230 +1 x243 +1 x256 +1 x269 +1 x282 +1 x295 >= 9;
-1 x61 -1 x74 -1 x87 -1 x100 -1 x113 -1 x126 -1 x139 -1 x152 -1 x165 -1 x178 -1 x191 -1 x204 -1 x217 -1 x230 -1 x243 -1 x256 -1 x269 -1 x282 -1 x295 >= -10;
+1 x62 +1 x75 +1 x88 +1 x101 +1 x114 +1 x127 +1 x140 +1 x153 +1 x166 +1 x179 +1 x192 +1 x205 +1 x218 +1 x231 +1 x244 +1 x257 +1 x270 +1 x283 +1 x296 >= 9;
-1 x62 -1 x75 -1 x88 -1 x101 -1 x114 -1 x127 -1 x140 -1 x153 -1 x166 -1 x179 -1 x192 -1 x205 -1 x218 -1 x231 -1 x244 -1 x257 -1 x270 -1 x283 -1 x296 >= -10;
+1 x63 +1 x76 +1 x89 +1 x102 +1 x115 +1 x128 +1 x141 +1 x154 +1 x167 +1 x180 +1 x193 +1 x206 +1 x219 +1 x232 +1 x245 +1 x258 +1 x271 +1 x284 +1 x297 >= 9;
-1 x63 -1 x76 -1 x89 -1 x102 -1 x115 -1 x128 -1 x141 -1 x154 -1 x167 -1 x180 -1 x193 -1 x206 -1 x219 -1 x232 -1 x245 -1 x258 -1 x271 -1 x284 -1 x297 >= -10;
+1 x64 +1 x77 +1 x90 +1 x103 +1 x116 +1 x129 +1 x142 +1 x155 +1 x168 +1 x181 +1 x194 +1 x207 +1 x220 +1 x233 +1 x246 +1 x259 +1 x272 +1 x285 +1 x298 >= 9;
-1 x64 -1 x77 -1 x90 -1 x103 -1 x116 -1 x129 -1 x142 -1 x155 -1 x168 -1 x181 -1 x194 -1 x207 -1 x220 -1 x233 -1 x246 -1 x259 -1 x272 -1 x285 -1 x298 >= -10;
+1 x65 +1 x78 +1 x91 +1 x104 +1 x117 +1 x130 +1 x143 +1 x156 +1 x169 +1 x182 +1 x195 +1 x208 +1 x221 +1 x234 +1 x247 +1 x260 +1 x273 +1 x286 +1 x299 >= 9;
-1 x65 -1 x78 -1 x91 -1 x104 -1 x117 -1 x130 -1 x143 -1 x156 -1 x169 -1 x182 -1 x195 -1 x208 -1 x221 -1 x234 -1 x247 -1 x260 -1 x273 -1 x286 -1 x299 >= -10;
+1 x66 +1 x79 +1 x92 +1 x105 +1 x118 +1 x131 +1 x144 +1 x157 +1 x170 +1 x183 +1 x196 +1 x209 +1 x222 +1 x235 +1 x248 +1 x261 +1 x274 +1 x287 +1 x300 >= 9;
-1 x66 -1 x79 -1 x92 -1 x105 -1 x118 -1 x131 -1 x144 -1 x157 -1 x170 -1 x183 -1 x196 -1 x209 -1 x222 -1 x235 -1 x248 -1 x261 -1 x274 -1 x287 -1 x300 >= -10;
+1 x67 +1 x80 +1 x93 +1 x106 +1 x119 +1 x132 +1 x145 +1 x158 +1 x171 +1 x184 +1 x197 +1 x210 +1 x223 +1 x236 +1 x249 +1 x262 +1 x275 +1 x288 +1 x301 >= 9;
-1 x67 -1 x80 -1 x93 -1 x106 -1 x119 -1 x132 -1 x145 -1 x158 -1 x171 -1 x184 -1 x197 -1 x210 -1 x223 -1 x236 -1 x249 -1 x262 -1 x275 -1 x288 -1 x301 >= -10;
+1 x68 +1 x81 +1 x94 +1 x107 +1 x120 +1 x133 +1 x146 +1 x159 +1 x172 +1 x185 +1 x198 +1 x211 +1 x224 +1 x237 +1 x250 +1 x263 +1 x276 +1 x289 +1 x302 >= 9;
-1 x68 -1 x81 -1 x94 -1 x107 -1 x120 -1 x133 -1 x146 -1 x159 -1 x172 -1 x185 -1 x198 -1 x211 -1 x224 -1 x237 -1 x250 -1 x263 -1 x276 -1 x289 -1 x302 >= -10;
+1 x69 +1 x82 +1 x95 +1 x108 +1 x121 +1 x134 +1 x147 +1 x160 +1 x173 +1 x186 +1 x199 +1 x212 +1 x225 +1 x238 +1 x251 +1 x264 +1 x277 +1 x290 +1 x303 >= 9;
-1 x69 -1 x82 -1 x95 -1 x108 -1 x121 -1 x134 -1 x147 -1 x160 -1 x173 -1 x186 -1 x199 -1 x212 -1 x225 -1 x238 -1 x251 -1 x264 -1 x277 -1 x290 -1 x303 >= -10;
+1 x70 +1 x83 +1 x96 +1 x109 +1 x122 +1 x135 +1 x148 +1 x161 +1 x174 +1 x187 +1 x200 +1 x213 +1 x226 +1 x239 +1 x252 +1 x265 +1 x278 +1 x291 +1 x304 >= 9;
-1 x70 -1 x83 -1 x96 -1 x109 -1 x122 -1 x135 -1 x148 -1 x161 -1 x174 -1 x187 -1 x200 -1 x213 -1 x226 -1 x239 -1 x252 -1 x265 -1 x278 -1 x291 -1 x304 >= -10;
+1 x71 +1 x84 +1 x97 +1 x110 +1 x123 +1 x136 +1 x149 +1 x162 +1 x175 +1 x188 +1 x201 +1 x214 +1 x227 +1 x240 +1 x253 +1 x266 +1 x279 +1 x292 +1 x305 >= 9;
-1 x71 -1 x84 -1 x97 -1 x110 -1 x123 -1 x136 -1 x149 -1 x162 -1 x175 -1 x188 -1 x201 -1 x214 -1 x227 -1 x240 -1 x253 -1 x266 -1 x279 -1 x292 -1 x305 >= -10;
+1 x72 +1 x85 +1 x98 +1 x111 +1 x124 +1 x137 +1 x150 +1 x163 +1 x176 +1 x189 +1 x202 +1 x215 +1 x228 +1 x241 +1 x254 +1 x267 +1 x280 +1 x293 +1 x306 >= 9;
-1 x72 -1 x85 -1 x98 -1 x111 -1 x124 -1 x137 -1 x150 -1 x163 -1 x176 -1 x189 -1 x202 -1 x215 -1 x228 -1 x241 -1 x254 -1 x267 -1 x280 -1 x293 -1 x306 >= -10;
+1 x73 +1 x86 +1 x99 +1 x112 +1 x125 +1 x138 +1 x151 +1 x164 +1 x177 +1 x190 +1 x203 +1 x216 +1 x229 +1 x242 +1 x255 +1 x268 +1 x281 +1 x294 +1 x307 >= 9;
-1 x73 -1 x86 -1 x99 -1 x112 -1 x125 -1 x138 -1 x151 -1 x164 -1 x177 -1 x190 -1 x203 -1 x216 -1 x229 -1 x242 -1 x255 -1 x268 -1 x281 -1 x294 -1 x307 >= -10;
+1 x74 +1 x87 +1 x100 +1 x113 +1 x126 +1 x139 +1 x152 +1 x165 +1 x178 +1 x191 +1 x204 +1 x217 +1 x230 +1 x243 +1 x256 +1 x269 +1 x282 +1 x295 +1 x308 >= 9;
-1 x74 -1 x87 -1 x100 -1 x113 -1 x126 -1 x139 -1 x152 -1 x165 -1 x178 -1 x191 -1 x204 -1 x217 -1 x230 -1 x243 -1 x256 -1 x269 -1 x282 -1 x295 -1 x308 >= -10;
+1 x75 +1 x88 +1 x101 +1 x114 +1 x127 +1 x140 +1 x153 +1 x166 +1 x179 +1 x192 +1 x205 +1 x218 +1 x231 +1 x244 +1 x257 +1 x270 +1 x283 +1 x296 +1 x309 >= 9;
-1 x75 -1 x88 -1 x101 -1 x114 -1 x127 -1 x140 -1 x153 -1 x166 -1 x179 -1 x192 -1 x205 -1 x218 -1 x231 -1 x244 -1 x257 -1 x270 -1 x283 -1 x296 -1 x309 >= -10;
+1 x76 +1 x89 +1 x102 +1 x115 +1 x128 +1 x141 +1 x154 +1 x167 +1 x180 +1 x193 +1 x206 +1 x219 +1 x232 +1 x245 +1 x258 +1 x271 +1 x284 +1 x297 +1 x310 >= 9;
-1 x76 -1 x89 -1 x102 -1 x115 -1 x128 -1 x141 -1 x154 -1 x167 -1 x180 -1 x193 -1 x206 -1 x219 -1 x232 -1 x245 -1 x258 -1 x271 -1 x284 -1 x297 -1 x310 >= -10;
+1 x77 +1 x90 +1 x103 +1 x116 +1 x129 +1 x142 +1 x155 +1 x168 +1 x181 +1 x194 +1 x207 +1 x220 +1 x233 +1 x246 +1 x259 +1 x272 +1 x285 +1 x298 +1 x311 >= 9;
-1 x77 -1 x90 -1 x103 -1 x116 -1 x129 -1 x142 -1 x155 -1 x168 -1 x181 -1 x194 -1 x207 -1 x220 -1 x233 -1 x246 -1 x259 -1 x272 -1 x285 -1 x298 -1 x311 >= -10;
+1 x78 +1 x91 +1 x104 +1 x117 +1 x130 +1 x143 +1 x156 +1 x169 +1 x182 +1 x195 +1 x208 +1 x221 +1 x234 +1 x247 +1 x260 +1 x273 +1 x286 +1 x299 +1 x312 >= 9;
-1 x78 -1 x91 -1 x104 -1 x117 -1 x130 -1 x143 -1 x156 -1 x169 -1 x182 -1 x195 -1 x208 -1 x221 -1 x234 -1 x247 -1 x260 -1 x273 -1 x286 -1 x299 -1 x312 >= -10;
+1 x79 +1 x92 +1 x105 +1 x118 +1 x131 +1 x144 +1 x157 +1 x170 +1 x183 +1 x196 +1 x209 +1 x222 +1 x235 +1 x248 +1 x261 +1 x274 +1 x287 +1 x300 +1 x313 >= 9;
-1 x79 -1 x92 -1 x105 -1 x118 -1 x131 -1 x144 -1 x157 -1 x170 -1 x183 -1 x196 -1 x209 -1 x222 -1 x235 -1 x248 -1 x261 -1 x274 -1 x287 -1 x300 -1 x313 >= -10;
+1 x80 +1 x93 +1 x106 +1 x119 +1 x132 +1 x145 +1 x158 +1 x171 +1 x184 +1 x197 +1 x210 +1 x223 +1 x236 +1 x249 +1 x262 +1 x275 +1 x288 +1 x301 +1 x314 >= 9;
-1 x80 -1 x93 -1 x106 -1 x119 -1 x132 -1 x145 -1 x158 -1 x171 -1 x184 -1 x197 -1 x210 -1 x223 -1 x236 -1 x249 -1 x262 -1 x275 -1 x288 -1 x301 -1 x314 >= -10;
+1 x81 +1 x94 +1 x107 +1 x120 +1 x133 +1 x146 +1 x159 +1 x172 +1 x185 +1 x198 +1 x211 +1 x224 +1 x237 +1 x250 +1 x263 +1 x276 +1 x289 +1 x302 +1 x315 >= 9;
-1 x81 -1 x94 -1 x107 -1 x120 -1 x133 -1 x146 -1 x159 -1 x172 -1 x185 -1 x198 -1 x211 -1 x224 -1 x237 -1 x250 -1 x263 -1 x276 -1 x289 -1 x302 -1 x315 >= -10;
+1 x82 +1 x95 +1 x108 +1 x121 +1 x134 +1 x147 +1 x160 +1 x173 +1 x186 +1 x199 +1 x212 +1 x225 +1 x238 +1 x251 +1 x264 +1 x277 +1 x290 +1 x303 +1 x316 >= 9;
-1 x82 -1 x95 -1 x108 -1 x121 -1 x134 -1 x147 -1 x160 -1 x173 -1 x186 -1 x199 -1 x212 -1 x225 -1 x238 -1 x251 -1 x264 -1 x277 -1 x290 -1 x303 -1 x316 >= -10;
+1 x83 +1 x96 +1 x109 +1 x122 +1 x135 +1 x148 +1 x161 +1 x174 +1 x187 +1 x200 +1 x213 +1 x226 +1 x239 +1 x252 +1 x265 +1 x278 +1 x291 +1 x304 +1 x317 >= 9;
-1 x83 -1 x96 -1 x109 -1 x122 -1 x135 -1 x148 -1 x161 -1 x174 -1 x187 -1 x200 -1 x213 -1 x226 -1 x239 -1 x252 -1 x265 -1 x278 -1 x291 -1 x304 -1 x317 >= -10;
+1 x84 +1 x97 +1 x110 +1 x123 +1 x136 +1 x149 +1 x162 +1 x175 +1 x188 +1 x201 +1 x214 +1 x227 +1 x240 +1 x253 +1 x266 +1 x279 +1 x292 +1 x305 +1 x318 >= 9;
-1 x84 -1 x97 -1 x110 -1 x123 -1 x136 -1 x149 -1 x162 -1 x175 -1 x188 -1 x201 -1 x214 -1 x227 -1 x240 -1 x253 -1 x266 -1 x279 -1 x292 -1 x305 -1 x318 >= -10;
+1 x85 +1 x98 +1 x111 +1 x124 +1 x137 +1 x150 +1 x163 +1 x176 +1 x189 +1 x202 +1 x215 +1 x228 +1 x241 +1 x254 +1 x267 +1 x280 +1 x293 +1 x306 +1 x319 >= 9;
-1 x85 -1 x98 -1 x111 -1 x124 -1 x137 -1 x150 -1 x163 -1 x176 -1 x189 -1 x202 -1 x215 -1 x228 -1 x241 -1 x254 -1 x267 -1 x280 -1 x293 -1 x306 -1 x319 >= -10;
+1 x86 +1 x99 +1 x112 +1 x125 +1 x138 +1 x151 +1 x164 +1 x177 +1 x190 +1 x203 +1 x216 +1 x229 +1 x242 +1 x255 +1 x268 +1 x281 +1 x294 +1 x307 +1 x320 >= 9;
-1 x86 -1 x99 -1 x112 -1 x125 -1 x138 -1 x151 -1 x164 -1 x177 -1 x190 -1 x203 -1 x216 -1 x229 -1 x242 -1 x255 -1 x268 -1 x281 -1 x294 -1 x307 -1 x320 >= -10;
+1 x87 +1 x100 +1 x113 +1 x126 +1 x139 +1 x152 +1 x165 +1 x178 +1 x191 +1 x204 +1 x217 +1 x230 +1 x243 +1 x256 +1 x269 +1 x282 +1 x295 +1 x308 +1 x321 >= 9;
-1 x87 -1 x100 -1 x113 -1 x126 -1 x139 -1 x152 -1 x165 -1 x178 -1 x191 -1 x204 -1 x217 -1 x230 -1 x243 -1 x256 -1 x269 -1 x282 -1 x295 -1 x308 -1 x321 >= -10;
+1 x88 +1 x101 +1 x114 +1 x127 +1 x140 +1 x153 +1 x166 +1 x179 +1 x192 +1 x205 +1 x218 +1 x231 +1 x244 +1 x257 +1 x270 +1 x283 +1 x296 +1 x309 +1 x322 >= 9;
-1 x88 -1 x101 -1 x114 -1 x127 -1 x140 -1 x153 -1 x166 -1 x179 -1 x192 -1 x205 -1 x218 -1 x231 -1 x244 -1 x257 -1 x270 -1 x283 -1 x296 -1 x309 -1 x322 >= -10;
+1 x89 +1 x102 +1 x115 +1 x128 +1 x141 +1 x154 +1 x167 +1 x180 +1 x193 +1 x206 +1 x219 +1 x232 +1 x245 +1 x258 +1 x271 +1 x284 +1 x297 +1 x310 +1 x323 >= 9;
-1 x89 -1 x102 -1 x115 -1 x128 -1 x141 -1 x154 -1 x167 -1 x180 -1 x193 -1 x206 -1 x219 -1 x232 -1 x245 -1 x258 -1 x271 -1 x284 -1 x297 -1 x310 -1 x323 >= -10;
+1 x90 +1 x103 +1 x116 +1 x129 +1 x142 +1 x155 +1 x168 +1 x181 +1 x194 +1 x207 +1 x220 +1 x233 +1 x246 +1 x259 +1 x272 +1 x285 +1 x298 +1 x311 +1 x324 >= 9;
-1 x90 -1 x103 -1 x116 -1 x129 -1 x142 -1 x155 -1 x168 -1 x181 -1 x194 -1 x207 -1 x220 -1 x233 -1 x246 -1 x259 -1 x272 -1 x285 -1 x298 -1 x311 -1 x324 >= -10;
+1 x91 +1 x104 +1 x117 +1 x130 +1 x143 +1 x156 +1 x169 +1 x182 +1 x195 +1 x208 +1 x221 +1 x234 +1 x247 +1 x260 +1 x273 +1 x286 +1 x299 +1 x312 +1 x325 >= 9;
-1 x91 -1 x104 -1 x117 -1 x130 -1 x143 -1 x156 -1 x169 -1 x182 -1 x195 -1 x208 -1 x221 -1 x234 -1 x247 -1 x260 -1 x273 -1 x286 -1 x299 -1 x312 -1 x325 >= -10;
+1 x92 +1 x105 +1 x118 +1 x131 +1 x144 +1 x157 +1 x170 +1 x183 +1 x196 +1 x209 +1 x222 +1 x235 +1 x248 +1 x261 +1 x274 +1 x287 +1 x300 +1 x313 +1 x326 >= 9;
-1 x92 -1 x105 -1 x118 -1 x131 -1 x144 -1 x157 -1 x170 -1 x183 -1 x196 -1 x209 -1 x222 -1 x235 -1 x248 -1 x261 -1 x274 -1 x287 -1 x300 -1 x313 -1 x326 >= -10;
+1 x93 +1 x106 +1 x119 +1 x132 +1 x145 +1 x158 +1 x171 +1 x184 +1 x197 +1 x210 +1 x223 +1 x236 +1 x249 +1 x262 +1 x275 +1 x288 +1 x301 +1 x314 +1 x327 >= 9;
-1 x93 -1 x106 -1 x119 -1 x132 -1 x145 -1 x158 -1 x171 -1 x184 -1 x197 -1 x210 -1 x223 -1 x236 -1 x249 -1 x262 -1 x275 -1 x288 -1 x301 -1 x314 -1 x327 >= -10;
+1 x94 +1 x107 +1 x120 +1 x133 +1 x146 +1 x159 +1 x172 +1 x185 +1 x198 +1 x211 +1 x224 +1 x237 +1 x250 +1 x263 +1 x276 +1 x289 +1 x302 +1 x315 +1 x328 >= 9;
-1 x94 -1 x107 -1 x120 -1 x133 -1 x146 -1 x159 -1 x172 -1 x185 -1 x198 -1 x211 -1 x224 -1 x237 -1 x250 -1 x263 -1 x276 -1 x289 -1 x302 -1 x315 -1 x328 >= -10;
+1 x95 +1 x108 +1 x121 +1 x134 +1 x147 +1 x160 +1 x173 +1 x186 +1 x199 +1 x212 +1 x225 +1 x238 +1 x251 +1 x264 +1 x277 +1 x290 +1 x303 +1 x316 +1 x329 >= 9;
-1 x95 -1 x108 -1 x121 -1 x134 -1 x147 -1 x160 -1 x173 -1 x186 -1 x199 -1 x212 -1 x225 -1 x238 -1 x251 -1 x264 -1 x277 -1 x290 -1 x303 -1 x316 -1 x329 >= -10;
+1 x96 +1 x109 +1 x122 +1 x135 +1 x148 +1 x161 +1 x174 +1 x187 +1 x200 +1 x213 +1 x226 +1 x239 +1 x252 +1 x265 +1 x278 +1 x291 +1 x304 +1 x317 +1 x330 >= 9;
-1 x96 -1 x109 -1 x122 -1 x135 -1 x148 -1 x161 -1 x174 -1 x187 -1 x200 -1 x213 -1 x226 -1 x239 -1 x252 -1 x265 -1 x278 -1 x291 -1 x304 -1 x317 -1 x330 >= -10;
+1 x97 +1 x110 +1 x123 +1 x136 +1 x149 +1 x162 +1 x175 +1 x188 +1 x201 +1 x214 +1 x227 +1 x240 +1 x253 +1 x266 +1 x279 +1 x292 +1 x305 +1 x318 +1 x331 >= 9;
-1 x97 -1 x110 -1 x123 -1 x136 -1 x149 -1 x162 -1 x175 -1 x188 -1 x201 -1 x214 -1 x227 -1 x240 -1 x253 -1 x266 -1 x279 -1 x292 -1 x305 -1 x318 -1 x331 >= -10;
+1 x98 +1 x111 +1 x124 +1 x137 +1 x150 +1 x163 +1 x176 +1 x189 +1 x202 +1 x215 +1 x228 +1 x241 +1 x254 +1 x267 +1 x280 +1 x293 +1 x306 +1 x319 +1 x332 >= 9;
-1 x98 -1 x111 -1 x124 -1 x137 -1 x150 -1 x163 -1 x176 -1 x189 -1 x202 -1 x215 -1 x228 -1 x241 -1 x254 -1 x267 -1 x280 -1 x293 -1 x306 -1 x319 -1 x332 >= -10;
+1 x99 +1 x112 +1 x125 +1 x138 +1 x151 +1 x164 +1 x177 +1 x190 +1 x203 +1 x216 +1 x229 +1 x242 +1 x255 +1 x268 +1 x281 +1 x294 +1 x307 +1 x320 +1 x333 >= 9;
-1 x99 -1 x112 -1 x125 -1 x138 -1 x151 -1 x164 -1 x177 -1 x190 -1 x203 -1 x216 -1 x229 -1 x242 -1 x255 -1 x268 -1 x281 -1 x294 -1 x307 -1 x320 -1 x333 >= -10;
+1 x100 +1 x113 +1 x126 +1 x139 +1 x152 +1 x165 +1 x178 +1 x191 +1 x204 +1 x217 +1 x230 +1 x243 +1 x256 +1 x269 +1 x282 +1 x295 +1 x308 +1 x321 +1 x334 >= 9;
-1 x100 -1 x113 -1 x126 -1 x139 -1 x152 -1 x165 -1 x178 -1 x191 -1 x204 -1 x217 -1 x230 -1 x243 -1 x256 -1 x269 -1 x282 -1 x295 -1 x308 -1 x321 -1 x334 >= -10;
+1 x101 +1 x114 +1 x127 +1 x140 +1 x153 +1 x166 +1 x179 +1 x192 +1 x205 +1 x218 +1 x231 +1 x244 +1 x257 +1 x270 +1 x283 +1 x296 +1 x309 +1 x322 +1 x335 >= 9;
-1 x101 -1 x114 -1 x127 -1 x140 -1 x153 -1 x166 -1 x179 -1 x192 -1 x205 -1 x218 -1 x231 -1 x244 -1 x257 -1 x270 -1 x283 -1 x296 -1 x309 -1 x322 -1 x335 >= -10;
+1 x102 +1 x115 +1 x128 +1 x141 +1 x154 +1 x167 +1 x180 +1 x193 +1 x206 +1 x219 +1 x232 +1 x245 +1 x258 +1 x271 +1 x284 +1 x297 +1 x310 +1 x323 +1 x336 >= 9;
-1 x102 -1 x115 -1 x128 -1 x141 -1 x154 -1 x167 -1 x180 -1 x193 -1 x206 -1 x219 -1 x232 -1 x245 -1 x258 -1 x271 -1 x284 -1 x297 -1 x310 -1 x323 -1 x336 >= -10;
+1 x103 +1 x116 +1 x129 +1 x142 +1 x155 +1 x168 +1 x181 +1 x194 +1 x207 +1 x220 +1 x233 +1 x246 +1 x259 +1 x272 +1 x285 +1 x298 +1 x311 +1 x324 +1 x337 >= 9;
-1 x103 -1 x116 -1 x129 -1 x142 -1 x155 -1 x168 -1 x181 -1 x194 -1 x207 -1 x220 -1 x233 -1 x246 -1 x259 -1 x272 -1 x285 -1 x298 -1 x311 -1 x324 -1 x337 >= -10;
+1 x104 +1 x117 +1 x130 +1 x143 +1 x156 +1 x169 +1 x182 +1 x195 +1 x208 +1 x221 +1 x234 +1 x247 +1 x260 +1 x273 +1 x286 +1 x299 +1 x312 +1 x325 +1 x338 >= 9;
-1 x104 -1 x117 -1 x130 -1 x143 -1 x156 -1 x169 -1 x182 -1 x195 -1 x208 -1 x221 -1 x234 -1 x247 -1 x260 -1 x273 -1 x286 -1 x299 -1 x312 -1 x325 -1 x338 >= -10;
+1 x105 +1 x118 +1 x131 +1 x144 +1 x157 +1 x170 +1 x183 +1 x196 +1 x209 +1 x222 +1 x235 +1 x248 +1 x261 +1 x274 +1 x287 +1 x300 +1 x313 +1 x326 +1 x339 >= 9;
-1 x105 -1 x118 -1 x131 -1 x144 -1 x157 -1 x170 -1 x183 -1 x196 -1 x209 -1 x222 -1 x235 -1 x248 -1 x261 -1 x274 -1 x287 -1 x300 -1 x313 -1 x326 -1 x339 >= -10;
+1 x106 +1 x119 +1 x132 +1 x145 +1 x158 +1 x171 +1 x184 +1 x197 +1 x210 +1 x223 +1 x236 +1 x249 +1 x262 +1 x275 +1 x288 +1 x301 +1 x314 +1 x327 +1 x340 >= 9;
-1 x106 -1 x119 -1 x132 -1 x145 -1 x158 -1 x171 -1 x184 -1 x197 -1 x210 -1 x223 -1 x236 -1 x249 -1 x262 -1 x275 -1 x288 -1 x301 -1 x314 -1 x327 -1 x340 >= -10;
+1 x107 +1 x120 +1 x133 +1 x146 +1 x159 +1 x172 +1 x185 +1 x198 +1 x211 +1 x224 +1 x237 +1 x250 +1 x263 +1 x276 +1 x289 +1 x302 +1 x315 +1 x328 +1 x341 >= 9;
-1 x107 -1 x120 -1 x133 -1 x146 -1 x159 -1 x172 -1 x185 -1 x198 -1 x211 -1 x224 -1 x237 -1 x250 -1 x263 -1 x276 -1 x289 -1 x302 -1 x315 -1 x328 -1 x341 >= -10;
+1 x108 +1 x121 +1 x134 +1 x147 +1 x160 +1 x173 +1 x186 +1 x199 +1 x212 +1 x225 +1 x238 +1 x251 +1 x264 +1 x277 +1 x290 +1 x303 +1 x316 +1 x329 +1 x342 >= 9;
-1 x108 -1 x121 -1 x134 -1 x147 -1 x160 -1 x173 -1 x186 -1 x199 -1 x212 -1 x225 -1 x238 -1 x251 -1 x264 -1 x277 -1 x290 -1 x303 -1 x316 -1 x329 -1 x342 >= -10;
+1 x109 +1 x122 +1 x135 +1 x148 +1 x161 +1 x174 +1 x187 +1 x200 +1 x213 +1 x226 +1 x239 +1 x252 +1 x265 +1 x278 +1 x291 +1 x304 +1 x317 +1 x330 +1 x343 >= 9;
-1 x109 -1 x122 -1 x135 -1 x148 -1 x161 -1 x174 -1 x187 -1 x200 -1 x213 -1 x226 -1 x239 -1 x252 -1 x265 -1 x278 -1 x291 -1 x304 -1 x317 -1 x330 -1 x343 >= -10;
+1 x110 +1 x123 +1 x136 +1 x149 +1 x162 +1 x175 +1 x188 +1 x201 +1 x214 +1 x227 +1 x240 +1 x253 +1 x266 +1 x279 +1 x292 +1 x305 +1 x318 +1 x331 +1 x344 >= 9;
-1 x110 -1 x123 -1 x136 -1 x149 -1 x162 -1 x175 -1 x188 -1 x201 -1 x214 -1 x227 -1 x240 -1 x253 -1 x266 -1 x279 -1 x292 -1 x305 -1 x318 -1 x331 -1 x344 >= -10;
+1 x1 +1 x15 +1 x29 +1 x43 +1 x57 +1 x71 +1 x85 +1 x99 +1 x113 +1 x127 +1 x141 +1 x155 +1 x169 +1 x183 +1 x197 +1 x211 +1 x225 +1 x239 +1 x253 >= 9;
-1 x1 -1 x15 -1 x29 -1 x43 -1 x57 -1 x71 -1 x85 -1 x99 -1 x113 -1 x127 -1 x141 -1 x155 -1 x169 -1 x183 -1 x197 -1 x211 -1 x225 -1 x239 -1 x253 >= -10;
+1 x2 +1 x16 +1 x30 +1 x44 +1 x58 +1 x72 +1 x86 +1 x100 +1 x114 +1 x128 +1 x142 +1 x156 +1 x170 +1 x184 +1 x198 +1 x212 +1 x226 +1 x240 +1 x254 >= 9;
-1 x2 -1 x16 -1 x30 -1 x44 -1 x58 -1 x72 -1 x86 -1 x100 -1 x114 -1 x128 -1 x142 -1 x156 -1 x170 -1 x184 -1 x198 -1 x212 -1 x226 -1 x240 -1 x254 >= -10;
+1 x3 +1 x17 +1 x31 +1 x45 +1 x59 +1 x73 +1 x87 +1 x101 +1 x115 +1 x129 +1 x143 +1 x157 +1 x171 +1 x185 +1 x199 +1 x213 +1 x227 +1 x241 +1 x255 >= 9;
-1 x3 -1 x17 -1 x31 -1 x45 -1 x59 -1 x73 -1 x87 -1 x101 -1 x115 -1 x129 -1 x143 -1 x157 -1 x171 -1 x185 -1 x199 -1 x213 -1 x227 -1 x241 -1 x255 >= -10;
+1 x4 +1 x18 +1 x32 +1 x46 +1 x60 +1 x74 +1 x88 +1 x102 +1 x116 +1 x130 +1 x144 +1 x158 +1 x172 +1 x186 +1 x200 +1 x214 +1 x228 +1 x242 +1 x256 >= 9;
-1 x4 -1 x18 -1 x32 -1 x46 -1 x60 -1 x74 -1 x88 -1 x102 -1 x116 -1 x130 -1 x144 -1 x158 -1 x172 -1 x186 -1 x200 -1 x214 -1 x228 -1 x242 -1 x256 >= -10;
+1 x5 +1 x19 +1 x33 +1 x47 +1 x61 +1 x75 +1 x89 +1 x103 +1 x117 +1 x131 +1 x145 +1 x159 +1 x173 +1 x187 +1 x201 +1 x215 +1 x229 +1 x243 +1 x257 >= 9;
-1 x5 -1 x19 -1 x33 -1 x47 -1 x61 -1 x75 -1 x89 -1 x103 -1 x117 -1 x131 -1 x145 -1 x159 -1 x173 -1 x187 -1 x201 -1 x215 -1 x229 -1 x243 -1 x257 >= -10;
+1 x6 +1 x20 +1 x34 +1 x48 +1 x62 +1 x76 +1 x90 +1 x104 +1 x118 +1 x132 +1 x146 +1 x160 +1 x174 +1 x188 +1 x202 +1 x216 +1 x230 +1 x244 +1 x258 >= 9;
-1 x6 -1 x20 -1 x34 -1 x48 -1 x62 -1 x76 -1 x90 -1 x104 -1 x118 -1 x132 -1 x146 -1 x160 -1 x174 -1 x188 -1 x202 -1 x216 -1 x230 -1 x244 -1 x258 >= -10;
+1 x7 +1 x21 +1 x35 +1 x49 +1 x63 +1 x77 +1 x91 +1 x105 +1 x119 +1 x133 +1 x147 +1 x161 +1 x175 +1 x189 +1 x203 +1 x217 +1 x231 +1 x245 +1 x259 >= 9;
-1 x7 -1 x21 -1 x35 -1 x49 -1 x63 -1 x77 -1 x91 -1 x105 -1 x119 -1 x133 -1 x147 -1 x161 -1 x175 -1 x189 -1 x203 -1 x217 -1 x231 -1 x245 -1 x259 >= -10;
+1 x8 +1 x22 +1 x36 +1 x50 +1 x64 +1 x78 +1 x92 +1 x106 +1 x120 +1 x134 +1 x148 +1 x162 +1 x176 +1 x190 +1 x204 +1 x218 +1 x232 +1 x246 +1 x260 >= 9;
-1 x8 -1 x22 -1 x36 -1 x50 -1 x64 -1 x78 -1 x92 -1 x106 -1 x120 -1 x134 -1 x148 -1 x162 -1 x176 -1 x190 -1 x204 -1 x218 -1 x232 -1 x246 -1 x260 >= -10;
+1 x9 +1 x23 +1 x37 +1 x51 +1 x65 +1 x79 +1 x93 +1 x107 +1 x121 +1 x135 +1 x149 +1 x163 +1 x177 +1 x191 +1 x205 +1 x219 +1 x233 +1 x247 +1 x261 >= 9;
-1 x9 -1 x23 -1 x37 -1 x51 -1 x65 -1 x79 -1 x93 -1 x107 -1 x121 -1 x135 -1 x149 -1 x163 -1 x177 -1 x191 -1 x205 -1 x219 -1 x233 -1 x247 -1 x261 >= -10;
+1 x10 +1 x24 +1 x38 +1 x52 +1 x66 +1 x80 +1 x94 +1 x108 +1 x122 +1 x136 +1 x150 +1 x164 +1 x178 +1 x192 +1 x206 +1 x220 +1 x234 +1 x248 +1 x262 >= 9;
-1 x10 -1 x24 -1 x38 -1 x52 -1 x66 -1 x80 -1 x94 -1 x108 -1 x122 -1 x136 -1 x150 -1 x164 -1 x178 -1 x192 -1 x206 -1 x220 -1 x234 -1 x248 -1 x262 >= -10;
+1 x11 +1 x25 +1 x39 +1 x53 +1 x67 +1 x81 +1 x95 +1 x109 +1 x123 +1 x137 +1 x151 +1 x165 +1 x179 +1 x193 +1 x207 +1 x221 +1 x235 +1 x249 +1 x263 >= 9;
-1 x11 -1 x25 -1 x39 -1 x53 -1 x67 -1 x81 -1 x95 -1 x109 -1 x123 -1 x137 -1 x151 -1 x165 -1 x179 -1 x193 -1 x207 -1 x221 -1 x235 -1 x249 -1 x263 >= -10;
+1 x12 +1 x26 +1 x40 +1 x54 +1 x68 +1 x82 +1 x96 +1 x110 +1 x124 +1 x138 +1 x152 +1 x166 +1 x180 +1 x194 +1 x208 +1 x222 +1 x236 +1 x250 +1 x264 >= 9;
-1 x12 -1 x26 -1 x40 -1 x54 -1 x68 -1 x82 -1 x96 -1 x110 -1 x124 -1 x138 -1 x152 -1 x166 -1 x180 -1 x194 -1 x208 -1 x222 -1 x236 -1 x250 -1 x264 >= -10;
+1 x13 +1 x27 +1 x41 +1 x55 +1 x69 +1 x83 +1 x97 +1 x111 +1 x125 +1 x139 +1 x153 +1 x167 +1 x181 +1 x195 +1 x209 +1 x223 +1 x237 +1 x251 +1 x265 >= 9;
-1 x13 -1 x27 -1 x41 -1 x55 -1 x69 -1 x83 -1 x97 -1 x111 -1 x125 -1 x139 -1 x153 -1 x167 -1 x181 -1 x195 -1 x209 -1 x223 -1 x237 -1 x251 -1 x265 >= -10;
+1 x14 +1 x28 +1 x42 +1 x56 +1 x70 +1 x84 +1 x98 +1 x112 +1 x126 +1 x140 +1 x154 +1 x168 +1 x182 +1 x196 +1 x210 +1 x224 +1 x238 +1 x252 +1 x266 >= 9;
-1 x14 -1 x28 -1 x42 -1 x56 -1 x70 -1 x84 -1 x98 -1 x112 -1 x126 -1 x140 -1 x154 -1 x168 -1 x182 -1 x196 -1 x210 -1 x224 -1 x238 -1 x252 -1 x266 >= -10;
+1 x15 +1 x29 +1 x43 +1 x57 +1 x71 +1 x85 +1 x99 +1 x113 +1 x127 +1 x141 +1 x155 +1 x169 +1 x183 +1 x197 +1 x211 +1 x225 +1 x239 +1 x253 +1 x267 >= 9;
-1 x15 -1 x29 -1 x43 -1 x57 -1 x71 -1 x85 -1 x99 -1 x113 -1 x127 -1 x141 -1 x155 -1 x169 -1 x183 -1 x197 -1 x211 -1 x225 -1 x239 -1 x253 -1 x267 >= -10;
+1 x16 +1 x30 +1 x44 +1 x58 +1 x72 +1 x86 +1 x100 +1 x114 +1 x128 +1 x142 +1 x156 +1 x170 +1 x184 +1 x198 +1 x212 +1 x226 +1 x240 +1 x254 +1 x268 >= 9;
-1 x16 -1 x30 -1 x44 -1 x58 -1 x72 -1 x86 -1 x100 -1 x114 -1 x128 -1 x142 -1 x156 -1 x170 -1 x184 -1 x198 -1 x212 -1 x226 -1 x240 -1 x254 -1 x268 >= -10;
+1 x17 +1 x31 +1 x45 +1 x59 +1 x73 +1 x87 +1 x101 +1 x115 +1 x129 +1 x143 +1 x157 +1 x171 +1 x185 +1 x199 +1 x213 +1 x227 +1 x241 +1 x255 +1 x269 >= 9;
-1 x17 -1 x31 -1 x45 -1 x59 -1 x73 -1 x87 -1 x101 -1 x115 -1 x129 -1 x143 -1 x157 -1 x171 -1 x185 -1 x199 -1 x213 -1 x227 -1 x241 -1 x255 -1 x269 >= -10;
+1 x18 +1 x32 +1 x46 +1 x60 +1 x74 +1 x88 +1 x102 +1 x116 +1 x130 +1 x144 +1 x158 +1 x172 +1 x186 +1 x200 +1 x214 +1 x228 +1 x242 +1 x256 +1 x270 >= 9;
-1 x18 -1 x32 -1 x46 -1 x60 -1 x74 -1 x88 -1 x102 -1 x116 -1 x130 -1 x144 -1 x158 -1 x172 -1 x186 -1 x200 -1 x214 -1 x228 -1 x242 -1 x256 -1 x270 >= -10;
+1 x19 +1 x33 +1 x47 +1 x61 +1 x75 +1 x89 +1 x103 +1 x117 +1 x131 +1 x145 +1 x159 +1 x173 +1 x187 +1 x201 +1 x215 +1 x229 +1 x243 +1 x257 +1 x271 >= 9;
-1 x19 -1 x33 -1 x47 -1 x61 -1 x75 -1 x89 -1 x103 -1 x117 -1 x131 -1 x145 -1 x159 -1 x173 -1 x187 -1 x201 -1 x215 -1 x229 -1 x243 -1 x257 -1 x271 >= -10;
+1 x20 +1 x34 +1 x48 +1 x62 +1 x76 +1 x90 +1 x104 +1 x118 +1 x132 +1 x146 +1 x160 +1 x174 +1 x188 +1 x202 +1 x216 +1 x230 +1 x244 +1 x258 +1 x272 >= 9;
-1 x20 -1 x34 -1 x48 -1 x62 -1 x76 -1 x90 -1 x104 -1 x118 -1 x132 -1 x146 -1 x160 -1 x174 -1 x188 -1 x202 -1 x216 -1 x230 -1 x244 -1 x258 -1 x272 >= -10;
+1 x21 +1 x35 +1 x49 +1 x63 +1 x77 +1 x91 +1 x105 +1 x119 +1 x133 +1 x147 +1 x161 +1 x175 +1 x189 +1 x203 +1 x217 +1 x231 +1 x245 +1 x259 +1 x273 >= 9;
-1 x21 -1 x35 -1 x49 -1 x63 -1 x77 -1 x91 -1 x105 -1 x119 -1 x133 -1 x147 -1 x161 -1 x175 -1 x189 -1 x203 -1 x217 -1 x231 -1 x245 -1 x259 -1 x273 >= -10;
+1 x22 +1 x36 +1 x50 +1 x64 +1 x78 +1 x92 +1 x106 +1 x120 +1 x134 +1 x148 +1 x162 +1 x176 +1 x190 +1 x204 +1 x218 +1 x232 +1 x246 +1 x260 +1 x274 >= 9;
-1 x22 -1 x36 -1 x50 -1 x64 -1 x78 -1 x92 -1 x106 -1 x120 -1 x134 -1 x148 -1 x162 -1 x176 -1 x190 -1 x204 -1 x218 -1 x232 -1 x246 -1 x260 -1 x274 >= -10;
+1 x23 +1 x37 +1 x51 +1 x65 +1 x79 +1 x93 +1 x107 +1 x121 +1 x135 +1 x149 +1 x163 +1 x177 +1 x191 +1 x205 +1 x219 +1 x233 +1 x247 +1 x261 +1 x275 >= 9;
-1 x23 -1 x37 -1 x51 -1 x65 -1 x79 -1 x93 -1 x107 -1 x121 -1 x135 -1 x149 -1 x163 -1 x177 -1 x191 -1 x205 -1 x219 -1 x233 -1 x247 -1 x261 -1 x275 >= -10;
+1 x24 +1 x38 +1 x52 +1 x66 +1 x80 +1 x94 +1 x108 +1 x122 +1 x136 +1 x150 +1 x164 +1 x178 +1 x192 +1 x206 +1 x220 +1 x234 +1 x248 +1 x262 +1 x276 >= 9;
-1 x24 -1 x38 -1 x52 -1 x66 -1 x80 -1 x94 -1 x108 -1 x122 -1 x136 -1 x150 -1 x164 -1 x178 -1 x192 -1 x206 -1 x220 -1 x234 -1 x248 -1 x262 -1 x276 >= -10;
+1 x25 +1 x39 +1 x53 +1 x67 +1 x81 +1 x95 +1 x109 +1 x123 +1 x137 +1 x151 +1 x165 +1 x179 +1 x193 +1 x207 +1 x221 +1 x235 +1 x249 +1 x263 +1 x277 >= 9;
-1 x25 -1 x39 -1 x53 -1 x67 -1 x81 -1 x95 -1 x109 -1 x123 -1 x137 -1 x151 -1 x165 -1 x179 -1 x193 -1 x207 -1 x221 -1 x235 -1 x249 -1 x263 -1 x277 >= -10;
+1 x26 +1 x40 +1 x54 +1 x68 +1 x82 +1 x96 +1 x110 +1 x124 +1 x138 +1 x152 +1 x166 +1 x180 +1 x194 +1 x208 +1 x222 +1 x236 +1 x250 +1 x264 +1 x278 >= 9;
-1 x26 -1 x40 -1 x54 -1 x68 -1 x82 -1 x96 -1 x110 -1 x124 -1 x138 -1 x152 -1 x166 -1 x180 -1 x194 -1 x208 -1 x222 -1 x236 -1 x250 -1 x264 -1 x278 >= -10;
+1 x27 +1 x41 +1 x55 +1 x69 +1 x83 +1 x97 +1 x111 +1 x125 +1 x139 +1 x153 +1 x167 +1 x181 +1 x195 +1 x209 +1 x223 +1 x237 +1 x251 +1 x265 +1 x279 >= 9;
-1 x27 -1 x41 -1 x55 -1 x69 -1 x83 -1 x97 -1 x111 -1 x125 -1 x139 -1 x153 -1 x167 -1 x181 -1 x195 -1 x209 -1 x223 -1 x237 -1 x251 -1 x265 -1 x279 >= -10;
+1 x28 +1 x42 +1 x56 +1 x70 +1 x84 +1 x98 +1 x112 +1 x126 +1 x140 +1 x154 +1 x168 +1 x182 +1 x196 +1 x210 +1 x224 +1 x238 +1 x252 +1 x266 +1 x280 >= 9;
-1 x28 -1 x42 -1 x56 -1 x70 -1 x84 -1 x98 -1 x112 -1 x126 -1 x140 -1 x154 -1 x168 -1 x182 -1 x196 -1 x210 -1 x224 -1 x238 -1 x252 -1 x266 -1 x280 >= -10;
+1 x29 +1 x43 +1 x57 +1 x71 +1 x85 +1 x99 +1 x113 +1 x127 +1 x141 +1 x155 +1 x169 +1 x183 +1 x197 +1 x211 +1 x225 +1 x239 +1 x253 +1 x267 +1 x281 >= 9;
-1 x29 -1 x43 -1 x57 -1 x71 -1 x85 -1 x99 -1 x113 -1 x127 -1 x141 -1 x155 -1 x169 -1 x183 -1 x197 -1 x211 -1 x225 -1 x239 -1 x253 -1 x267 -1 x281 >= -10;
+1 x30 +1 x44 +1 x58 +1 x72 +1 x86 +1 x100 +1 x114 +1 x128 +1 x142 +1 x156 +1 x170 +1 x184 +1 x198 +1 x212 +1 x226 +1 x240 +1 x254 +1 x268 +1 x282 >= 9;
-1 x30 -1 x44 -1 x58 -1 x72 -1 x86 -1 x100 -1 x114 -1 x128 -1 x142 -1 x156 -1 x170 -1 x184 -1 x198 -1 x212 -1 x226 -1 x240 -1 x254 -1 x268 -1 x282 >= -10;
+1 x31 +1 x45 +1 x59 +1 x73 +1 x87 +1 x101 +1 x115 +1 x129 +1 x143 +1 x157 +1 x171 +1 x185 +1 x199 +1 x213 +1 x227 +1 x241 +1 x255 +1 x269 +1 x283 >= 9;
-1 x31 -1 x45 -1 x59 -1 x73 -1 x87 -1 x101 -1 x115 -1 x129 -1 x143 -1 x157 -1 x171 -1 x185 -1 x199 -1 x213 -1 x227 -1 x241 -1 x255 -1 x269 -1 x283 >= -10;
+1 x32 +1 x46 +1 x60 +1 x74 +1 x88 +1 x102 +1 x116 +1 x130 +1 x144 +1 x158 +1 x172 +1 x186 +1 x200 +1 x214 +1 x228 +1 x242 +1 x256 +1 x270 +1 x284 >= 9;
-1 x32 -1 x46 -1 x60 -1 x74 -1 x88 -1 x102 -1 x116 -1 x130 -1 x144 -1 x158 -1 x172 -1 x186 -1 x200 -1 x214 -1 x228 -1 x242 -1 x256 -1 x270 -1 x284 >= -10;
+1 x33 +1 x47 +1 x61 +1 x75 +1 x89 +1 x103 +1 x117 +1 x131 +1 x145 +1 x159 +1 x173 +1 x187 +1 x201 +1 x215 +1 x229 +1 x243 +1 x257 +1 x271 +1 x285 >= 9;
-1 x33 -1 x47 -1 x61 -1 x75 -1 x89 -1 x103 -1 x117 -1 x131 -1 x145 -1 x159 -1 x173 -1 x187 -1 x201 -1 x215 -1 x229 -1 x243 -1 x257 -1 x271 -1 x285 >= -10;
+1 x34 +1 x48 +1 x62 +1 x76 +1 x90 +1 x104 +1 x118 +1 x132 +1 x146 +1 x160 +1 x174 +1 x188 +1 x202 +1 x216 +1 x230 +1 x244 +1 x258 +1 x272 +1 x286 >= 9;
-1 x34 -1 x48 -1 x62 -1 x76 -1 x90 -1 x104 -1 x118 -1 x132 -1 x146 -1 x160 -1 x174 -1 x188 -1 x202 -1 x216 -1 x230 -1 x244 -1 x258 -1 x272 -1 x286 >= -10;
+1 x35 +1 x49 +1 x63 +1 x77 +1 x91 +1 x105 +1 x119 +1 x133 +1 x147 +1 x161 +1 x175 +1 x189 +1 x203 +1 x217 +1 x231 +1 x245 +1 x259 +1 x273 +1 x287 >= 9;
-1 x35 -1 x49 -1 x63 -1 x77 -1 x91 -1 x105 -1 x119 -1 x133 -1 x147 -1 x161 -1 x175 -1 x189 -1 x203 -1 x217 -1 x231 -1 x245 -1 x259 -1 x273 -1 x287 >= -10;
+1 x36 +1 x50 +1 x64 +1 x78 +1 x92 +1 x106 +1 x120 +1 x134 +1 x148 +1 x162 +1 x176 +1 x190 +1 x204 +1 x218 +1 x232 +1 x246 +1 x260 +1 x274 +1 x288 >= 9;
-1 x36 -1 x50 -1 x64 -1 x78 -1 x92 -1 x106 -1 x120 -1 x134 -1 x148 -1 x162 -1 x176 -1 x190 -1 x204 -1 x218 -1 x232 -1 x246 -1 x260 -1 x274 -1 x288 >= -10;
+1 x37 +1 x51 +1 x65 +1 x79 +1 x93 +1 x107 +1 x121 +1 x135 +1 x149 +1 x163 +1 x177 +1 x191 +1 x205 +1 x219 +1 x233 +1 x247 +1 x261 +1 x275 +1 x289 >= 9;
-1 x37 -1 x51 -1 x65 -1 x79 -1 x93 -1 x107 -1 x121 -1 x135 -1 x149 -1 x163 -1 x177 -1 x191 -1 x205 -1 x219 -1 x233 -1 x247 -1 x261 -1 x275 -1 x289 >= -10;
+1 x38 +1 x52 +1 x66 +1 x80 +1 x94 +1 x108 +1 x122 +1 x136 +1 x150 +1 x164 +1 x178 +1 x192 +1 x206 +1 x220 +1 x234 +1 x248 +1 x262 +1 x276 +1 x290 >= 9;
-1 x38 -1 x52 -1 x66 -1 x80 -1 x94 -1 x108 -1 x122 -1 x136 -1 x150 -1 x164 -1 x178 -1 x192 -1 x206 -1 x220 -1 x234 -1 x248 -1 x262 -1 x276 -1 x290 >= -10;
+1 x39 +1 x53 +1 x67 +1 x81 +1 x95 +1 x109 +1 x123 +1 x137 +1 x151 +1 x165 +1 x179 +1 x193 +1 x207 +1 x221 +1 x235 +1 x249 +1 x263 +1 x277 +1 x291 >= 9;
-1 x39 -1 x53 -1 x67 -1 x81 -1 x95 -1 x109 -1 x123 -1 x137 -1 x151 -1 x165 -1 x179 -1 x193 -1 x207 -1 x221 -1 x235 -1 x249 -1 x263 -1 x277 -1 x291 >= -10;
+1 x40 +1 x54 +1 x68 +1 x82 +1 x96 +1 x110 +1 x124 +1 x138 +1 x152 +1 x166 +1 x180 +1 x194 +1 x208 +1 x222 +1 x236 +1 x250 +1 x264 +1 x278 +1 x292 >= 9;
-1 x40 -1 x54 -1 x68 -1 x82 -1 x96 -1 x110 -1 x124 -1 x138 -1 x152 -1 x166 -1 x180 -1 x194 -1 x208 -1 x222 -1 x236 -1 x250 -1 x264 -1 x278 -1 x292 >= -10;
+1 x41 +1 x55 +1 x69 +1 x83 +1 x97 +1 x111 +1 x125 +1 x139 +1 x153 +1 x167 +1 x181 +1 x195 +1 x209 +1 x223 +1 x237 +1 x251 +1 x265 +1 x279 +1 x293 >= 9;
-1 x41 -1 x55 -1 x69 -1 x83 -1 x97 -1 x111 -1 x125 -1 x139 -1 x153 -1 x167 -1 x181 -1 x195 -1 x209 -1 x223 -1 x237 -1 x251 -1 x265 -1 x279 -1 x293 >= -10;
+1 x42 +1 x56 +1 x70 +1 x84 +1 x98 +1 x112 +1 x126 +1 x140 +1 x154 +1 x168 +1 x182 +1 x196 +1 x210 +1 x224 +1 x238 +1 x252 +1 x266 +1 x280 +1 x294 >= 9;
-1 x42 -1 x56 -1 x70 -1 x84 -1 x98 -1 x112 -1 x126 -1 x140 -1 x154 -1 x168 -1 x182 -1 x196 -1 x210 -1 x224 -1 x238 -1 x252 -1 x266 -1 x280 -1 x294 >= -10;
+1 x43 +1 x57 +1 x71 +1 x85 +1 x99 +1 x113 +1 x127 +1 x141 +1 x155 +1 x169 +1 x183 +1 x197 +1 x211 +1 x225 +1 x239 +1 x253 +1 x267 +1 x281 +1 x295 >= 9;
-1 x43 -1 x57 -1 x71 -1 x85 -1 x99 -1 x113 -1 x127 -1 x141 -1 x155 -1 x169 -1 x183 -1 x197 -1 x211 -1 x225 -1 x239 -1 x253 -1 x267 -1 x281 -1 x295 >= -10;
+1 x44 +1 x58 +1 x72 +1 x86 +1 x100 +1 x114 +1 x128 +1 x142 +1 x156 +1 x170 +1 x184 +1 x198 +1 x212 +1 x226 +1 x240 +1 x254 +1 x268 +1 x282 +1 x296 >= 9;
-1 x44 -1 x58 -1 x72 -1 x86 -1 x100 -1 x114 -1 x128 -1 x142 -1 x156 -1 x170 -1 x184 -1 x198 -1 x212 -1 x226 -1 x240 -1 x254 -1 x268 -1 x282 -1 x296 >= -10;
+1 x45 +1 x59 +1 x73 +1 x87 +1 x101 +1 x115 +1 x129 +1 x143 +1 x157 +1 x171 +1 x185 +1 x199 +1 x213 +1 x227 +1 x241 +1 x255 +1 x269 +1 x283 +1 x297 >= 9;
-1 x45 -1 x59 -1 x73 -1 x87 -1 x101 -1 x115 -1 x129 -1 x143 -1 x157 -1 x171 -1 x185 -1 x199 -1 x213 -1 x227 -1 x241 -1 x255 -1 x269 -1 x283 -1 x297 >= -10;
+1 x46 +1 x60 +1 x74 +1 x88 +1 x102 +1 x116 +1 x130 +1 x144 +1 x158 +1 x172 +1 x186 +1 x200 +1 x214 +1 x228 +1 x242 +1 x256 +1 x270 +1 x284 +1 x298 >= 9;
-1 x46 -1 x60 -1 x74 -1 x88 -1 x102 -1 x116 -1 x130 -1 x144 -1 x158 -1 x172 -1 x186 -1 x200 -1 x214 -1 x228 -1 x242 -1 x256 -1 x270 -1 x284 -1 x298 >= -10;
+1 x47 +1 x61 +1 x75 +1 x89 +1 x103 +1 x117 +1 x131 +1 x145 +1 x159 +1 x173 +1 x187 +1 x201 +1 x215 +1 x229 +1 x243 +1 x257 +1 x271 +1 x285 +1 x299 >= 9;
-1 x47 -1 x61 -1 x75 -1 x89 -1 x103 -1 x117 -1 x131 -1 x145 -1 x159 -1 x173 -1 x187 -1 x201 -1 x215 -1 x229 -1 x243 -1 x257 -1 x271 -1 x285 -1 x299 >= -10;
+1 x48 +1 x62 +1 x76 +1 x90 +1 x104 +1 x118 +1 x132 +1 x146 +1 x160 +1 x174 +1 x188 +1 x202 +1 x216 +1 x230 +1 x244 +1 x258 +1 x272 +1 x286 +1 x300 >= 9;
-1 x48 -1 x62 -1 x76 -1 x90 -1 x104 -1 x118 -1 x132 -1 x146 -1 x160 -1 x174 -1 x188 -1 x202 -1 x216 -1 x230 -1 x244 -1 x258 -1 x272 -1 x286 -1 x300 >= -10;
+1 x49 +1 x63 +1 x77 +1 x91 +1 x105 +1 x119 +1 x133 +1 x147 +1 x161 +1 x175 +1 x189 +1 x203 +1 x217 +1 x231 +1 x245 +1 x259 +1 x273 +1 x287 +1 x301 >= 9;
-1 x49 -1 x63 -1 x77 -1 x91 -1 x105 -1 x119 -1 x133 -1 x147 -1 x161 -1 x175 -1 x189 -1 x203 -1 x217 -1 x231 -1 x245 -1 x259 -1 x273 -1 x287 -1 x301 >= -10;
+1 x50 +1 x64 +1 x78 +1 x92 +1 x106 +1 x120 +1 x134 +1 x148 +1 x162 +1 x176 +1 x190 +1 x204 +1 x218 +1 x232 +1 x246 +1 x260 +1 x274 +1 x288 +1 x302 >= 9;
-1 x50 -1 x64 -1 x78 -1 x92 -1 x106 -1 x120 -1 x134 -1 x148 -1 x162 -1 x176 -1 x190 -1 x204 -1 x218 -1 x232 -1 x246 -1 x260 -1 x274 -1 x288 -1 x302 >= -10;
+1 x51 +1 x65 +1 x79 +1 x93 +1 x107 +1 x121 +1 x135 +1 x149 +1 x163 +1 x177 +1 x191 +1 x205 +1 x219 +1 x233 +1 x247 +1 x261 +1 x275 +1 x289 +1 x303 >= 9;
-1 x51 -1 x65 -1 x79 -1 x93 -1 x107 -1 x121 -1 x135 -1 x149 -1 x163 -1 x177 -1 x191 -1 x205 -1 x219 -1 x233 -1 x247 -1 x261 -1 x275 -1 x289 -1 x303 >= -10;
+1 x52 +1 x66 +1 x80 +1 x94 +1 x108 +1 x122 +1 x136 +1 x150 +1 x164 +1 x178 +1 x192 +1 x206 +1 x220 +1 x234 +1 x248 +1 x262 +1 x276 +1 x290 +1 x304 >= 9;
-1 x52 -1 x66 -1 x80 -1 x94 -1 x108 -1 x122 -1 x136 -1 x150 -1 x164 -1 x178 -1 x192 -1 x206 -1 x220 -1 x234 -1 x248 -1 x262 -1 x276 -1 x290 -1 x304 >= -10;
+1 x53 +1 x67 +1 x81 +1 x95 +1 x109 +1 x123 +1 x137 +1 x151 +1 x165 +1 x179 +1 x193 +1 x207 +1 x221 +1 x235 +1 x249 +1 x263 +1 x277 +1 x291 +1 x305 >= 9;
-1 x53 -1 x67 -1 x81 -1 x95 -1 x109 -1 x123 -1 x137 -1 x151 -1 x165 -1 x179 -1 x193 -1 x207 -1 x221 -1 x235 -1 x249 -1 x263 -1 x277 -1 x291 -1 x305 >= -10;
+1 x54 +1 x68 +1 x82 +1 x96 +1 x110 +1 x124 +1 x138 +1 x152 +1 x166 +1 x180 +1 x194 +1 x208 +1 x222 +1 x236 +1 x250 +1 x264 +1 x278 +1 x292 +1 x306 >= 9;
-1 x54 -1 x68 -1 x82 -1 x96 -1 x110 -1 x124 -1 x138 -1 x152 -1 x166 -1 x180 -1 x194 -1 x208 -1 x222 -1 x236 -1 x250 -1 x264 -1 x278 -1 x292 -1 x306 >= -10;
+1 x55 +1 x69 +1 x83 +1 x97 +1 x111 +1 x125 +1 x139 +1 x153 +1 x167 +1 x181 +1 x195 +1 x209 +1 x223 +1 x237 +1 x251 +1 x265 +1 x279 +1 x293 +1 x307 >= 9;
-1 x55 -1 x69 -1 x83 -1 x97 -1 x111 -1 x125 -1 x139 -1 x153 -1 x167 -1 x181 -1 x195 -1 x209 -1 x223 -1 x237 -1 x251 -1 x265 -1 x279 -1 x293 -1 x307 >= -10;
+1 x56 +1 x70 +1 x84 +1 x98 +1 x112 +1 x126 +1 x140 +1 x154 +1 x168 +1 x182 +1 x196 +1 x210 +1 x224 +1 x238 +1 x252 +1 x266 +1 x280 +1 x294 +1 x308 >= 9;
-1 x56 -1 x70 -1 x84 -1 x98 -1 x112 -1 x126 -1 x140 -1 x154 -1 x168 -1 x182 -1 x196 -1 x210 -1 x224 -1 x238 -1 x252 -1 x266 -1 x280 -1 x294 -1 x308 >= -10;
+1 x57 +1 x71 +1 x85 +1 x99 +1 x113 +1 x127 +1 x141 +1 x155 +1 x169 +1 x183 +1 x197 +1 x211 +1 x225 +1 x239 +1 x253 +1 x267 +1 x281 +1 x295 +1 x309 >= 9;
-1 x57 -1 x71 -1 x85 -1 x99 -1 x113 -1 x127 -1 x141 -1 x155 -1 x169 -1 x183 -1 x197 -1 x211 -1 x225 -1 x239 -1 x253 -1 x267 -1 x281 -1 x295 -1 x309 >= -10;
+1 x58 +1 x72 +1 x86 +1 x100 +1 x114 +1 x128 +1 x142 +1 x156 +1 x170 +1 x184 +1 x198 +1 x212 +1 x226 +1 x240 +1 x254 +1 x268 +1 x282 +1 x296 +1 x310 >= 9;
-1 x58 -1 x72 -1 x86 -1 x100 -1 x114 -1 x128 -1 x142 -1 x156 -1 x170 -1 x184 -1 x198 -1 x212 -1 x226 -1 x240 -1 x254 -1 x268 -1 x282 -1 x296 -1 x310 >= -10;
+1 x59 +1 x73 +1 x87 +1 x101 +1 x115 +1 x129 +1 x143 +1 x157 +1 x171 +1 x185 +1 x199 +1 x213 +1 x227 +1 x241 +1 x255 +1 x269 +1 x283 +1 x297 +1 x311 >= 9;
-1 x59 -1 x73 -1 x87 -1 x101 -1 x115 -1 x129 -1 x143 -1 x157 -1 x171 -1 x185 -1 x199 -1 x213 -1 x227 -1 x241 -1 x255 -1 x269 -1 x283 -1 x297 -1 x311 >= -10;
+1 x60 +1 x74 +1 x88 +1 x102 +1 x116 +1 x130 +1 x144 +1 x158 +1 x172 +1 x186 +1 x200 +1 x214 +1 x228 +1 x242 +1 x256 +1 x270 +1 x284 +1 x298 +1 x312 >= 9;
-1 x60 -1 x74 -1 x88 -1 x102 -1 x116 -1 x130 -1 x144 -1 x158 -1 x172 -1 x186 -1 x200 -1 x214 -1 x228 -1 x242 -1 x256 -1 x270 -1 x284 -1 x298 -1 x312 >= -10;
+1 x61 +1 x75 +1 x89 +1 x103 +1 x117 +1 x131 +1 x145 +1 x159 +1 x173 +1 x187 +1 x201 +1 x215 +1 x229 +1 x243 +1 x257 +1 x271 +1 x285 +1 x299 +1 x313 >= 9;
-1 x61 -1 x75 -1 x89 -1 x103 -1 x117 -1 x131 -1 x145 -1 x159 -1 x173 -1 x187 -1 x201 -1 x215 -1 x229 -1 x243 -1 x257 -1 x271 -1 x285 -1 x299 -1 x313 >= -10;
+1 x62 +1 x76 +1 x90 +1 x104 +1 x118 +1 x132 +1 x146 +1 x160 +1 x174 +1 x188 +1 x202 +1 x216 +1 x230 +1 x244 +1 x258 +1 x272 +1 x286 +1 x300 +1 x314 >= 9;
-1 x62 -1 x76 -1 x90 -1 x104 -1 x118 -1 x132 -1 x146 -1 x160 -1 x174 -1 x188 -1 x202 -1 x216 -1 x230 -1 x244 -1 x258 -1 x272 -1 x286 -1 x300 -1 x314 >= -10;
+1 x63 +1 x77 +1 x91 +1 x105 +1 x119 +1 x133 +1 x147 +1 x161 +1 x175 +1 x189 +1 x203 +1 x217 +1 x231 +1 x245 +1 x259 +1 x273 +1 x287 +1 x301 +1 x315 >= 9;
-1 x63 -1 x77 -1 x91 -1 x105 -1 x119 -1 x133 -1 x147 -1 x161 -1 x175 -1 x189 -1 x203 -1 x217 -1 x231 -1 x245 -1 x259 -1 x273 -1 x287 -1 x301 -1 x315 >= -10;
+1 x64 +1 x78 +1 x92 +1 x106 +1 x120 +1 x134 +1 x148 +1 x162 +1 x176 +1 x190 +1 x204 +1 x218 +1 x232 +1 x246 +1 x260 +1 x274 +1 x288 +1 x302 +1 x316 >= 9;
-1 x64 -1 x78 -1 x92 -1 x106 -1 x120 -1 x134 -1 x148 -1 x162 -1 x176 -1 x190 -1 x204 -1 x218 -1 x232 -1 x246 -1 x260 -1 x274 -1 x288 -1 x302 -1 x316 >= -10;
+1 x65 +1 x79 +1 x93 +1 x107 +1 x121 +1 x135 +1 x149 +1 x163 +1 x177 +1 x191 +1 x205 +1 x219 +1 x233 +1 x247 +1 x261 +1 x275 +1 x289 +1 x303 +1 x317 >= 9;
-1 x65 -1 x79 -1 x93 -1 x107 -1 x121 -1 x135 -1 x149 -1 x163 -1 x177 -1 x191 -1 x205 -1 x219 -1 x233 -1 x247 -1 x261 -1 x275 -1 x289 -1 x303 -1 x317 >= -10;
+1 x66 +1 x80 +1 x94 +1 x108 +1 x122 +1 x136 +1 x150 +1 x164 +1 x178 +1 x192 +1 x206 +1 x220 +1 x234 +1 x248 +1 x262 +1 x276 +1 x290 +1 x304 +1 x318 >= 9;
-1 x66 -1 x80 -1 x94 -1 x108 -1 x122 -1 x136 -1 x150 -1 x164 -1 x178 -1 x192 -1 x206 -1 x220 -1 x234 -1 x248 -1 x262 -1 x276 -1 x290 -1 x304 -1 x318 >= -10;
+1 x67 +1 x81 +1 x95 +1 x109 +1 x123 +1 x137 +1 x151 +1 x165 +1 x179 +1 x193 +1 x207 +1 x221 +1 x235 +1 x249 +1 x263 +1 x277 +1 x291 +1 x305 +1 x319 >= 9;
-1 x67 -1 x81 -1 x95 -1 x109 -1 x123 -1 x137 -1 x151 -1 x165 -1 x179 -1 x193 -1 x207 -1 x221 -1 x235 -1 x249 -1 x263 -1 x277 -1 x291 -1 x305 -1 x319 >= -10;
+1 x68 +1 x82 +1 x96 +1 x110 +1 x124 +1 x138 +1 x152 +1 x166 +1 x180 +1 x194 +1 x208 +1 x222 +1 x236 +1 x250 +1 x264 +1 x278 +1 x292 +1 x306 +1 x320 >= 9;
-1 x68 -1 x82 -1 x96 -1 x110 -1 x124 -1 x138 -1 x152 -1 x166 -1 x180 -1 x194 -1 x208 -1 x222 -1 x236 -1 x250 -1 x264 -1 x278 -1 x292 -1 x306 -1 x320 >= -10;
+1 x69 +1 x83 +1 x97 +1 x111 +1 x125 +1 x139 +1 x153 +1 x167 +1 x181 +1 x195 +1 x209 +1 x223 +1 x237 +1 x251 +1 x265 +1 x279 +1 x293 +1 x307 +1 x321 >= 9;
-1 x69 -1 x83 -1 x97 -1 x111 -1 x125 -1 x139 -1 x153 -1 x167 -1 x181 -1 x195 -1 x209 -1 x223 -1 x237 -1 x251 -1 x265 -1 x279 -1 x293 -1 x307 -1 x321 >= -10;
+1 x70 +1 x84 +1 x98 +1 x112 +1 x126 +1 x140 +1 x154 +1 x168 +1 x182 +1 x196 +1 x210 +1 x224 +1 x238 +1 x252 +1 x266 +1 x280 +1 x294 +1 x308 +1 x322 >= 9;
-1 x70 -1 x84 -1 x98 -1 x112 -1 x126 -1 x140 -1 x154 -1 x168 -1 x182 -1 x196 -1 x210 -1 x224 -1 x238 -1 x252 -1 x266 -1 x280 -1 x294 -1 x308 -1 x322 >= -10;
+1 x71 +1 x85 +1 x99 +1 x113 +1 x127 +1 x141 +1 x155 +1 x169 +1 x183 +1 x197 +1 x211 +1 x225 +1 x239 +1 x253 +1 x267 +1 x281 +1 x295 +1 x309 +1 x323 >= 9;
-1 x71 -1 x85 -1 x99 -1 x113 -1 x127 -1 x141 -1 x155 -1 x169 -1 x183 -1 x197 -1 x211 -1 x225 -1 x239 -1 x253 -1 x267 -1 x281 -1 x295 -1 x309 -1 x323 >= -10;
+1 x72 +1 x86 +1 x100 +1 x114 +1 x128 +1 x142 +1 x156 +1 x170 +1 x184 +1 x198 +1 x212 +1 x226 +1 x240 +1 x254 +1 x268 +1 x282 +1 x296 +1 x310 +1 x324 >= 9;
-1 x72 -1 x86 -1 x100 -1 x114 -1 x128 -1 x142 -1 x156 -1 x170 -1 x184 -1 x198 -1 x212 -1 x226 -1 x240 -1 x254 -1 x268 -1 x282 -1 x296 -1 x310 -1 x324 >= -10;
+1 x73 +1 x87 +1 x101 +1 x115 +1 x129 +1 x143 +1 x157 +1 x171 +1 x185 +1 x199 +1 x213 +1 x227 +1 x241 +1 x255 +1 x269 +1 x283 +1 x297 +1 x311 +1 x325 >= 9;
-1 x73 -1 x87 -1 x101 -1 x115 -1 x129 -1 x143 -1 x157 -1 x171 -1 x185 -1 x199 -1 x213 -1 x227 -1 x241 -1 x255 -1 x269 -1 x283 -1 x297 -1 x311 -1 x325 >= -10;
+1 x74 +1 x88 +1 x102 +1 x116 +1 x130 +1 x144 +1 x158 +1 x172 +1 x186 +1 x200 +1 x214 +1 x228 +1 x242 +1 x256 +1 x270 +1 x284 +1 x298 +1 x312 +1 x326 >= 9;
-1 x74 -1 x88 -1 x102 -1 x116 -1 x130 -1 x144 -1 x158 -1 x172 -1 x186 -1 x200 -1 x214 -1 x228 -1 x242 -1 x256 -1 x270 -1 x284 -1 x298 -1 x312 -1 x326 >= -10;
+1 x75 +1 x89 +1 x103 +1 x117 +1 x131 +1 x145 +1 x159 +1 x173 +1 x187 +1 x201 +1 x215 +1 x229 +1 x243 +1 x257 +1 x271 +1 x285 +1 x299 +1 x313 +1 x327 >= 9;
-1 x75 -1 x89 -1 x103 -1 x117 -1 x131 -1 x145 -1 x159 -1 x173 -1 x187 -1 x201 -1 x215 -1 x229 -1 x243 -1 x257 -1 x271 -1 x285 -1 x299 -1 x313 -1 x327 >= -10;
+1 x76 +1 x90 +1 x104 +1 x118 +1 x132 +1 x146 +1 x160 +1 x174 +1 x188 +1 x202 +1 x216 +1 x230 +1 x244 +1 x258 +1 x272 +1 x286 +1 x300 +1 x314 +1 x328 >= 9;
-1 x76 -1 x90 -1 x104 -1 x118 -1 x132 -1 x146 -1 x160 -1 x174 -1 x188 -1 x202 -1 x216 -1 x230 -1 x244 -1 x258 -1 x272 -1 x286 -1 x300 -1 x314 -1 x328 >= -10;
+1 x77 +1 x91 +1 x105 +1 x119 +1 x133 +1 x147 +1 x161 +1 x175 +1 x189 +1 x203 +1 x217 +1 x231 +1 x245 +1 x259 +1 x273 +1 x287 +1 x301 +1 x315 +1 x329 >= 9;
-1 x77 -1 x91 -1 x105 -1 x119 -1 x133 -1 x147 -1 x161 -1 x175 -1 x189 -1 x203 -1 x217 -1 x231 -1 x245 -1 x259 -1 x273 -1 x287 -1 x301 -1 x315 -1 x329 >= -10;
+1 x78 +1 x92 +1 x106 +1 x120 +1 x134 +1 x148 +1 x162 +1 x176 +1 x190 +1 x204 +1 x218 +1 x232 +1 x246 +1 x260 +1 x274 +1 x288 +1 x302 +1 x316 +1 x330 >= 9;
-1 x78 -1 x92 -1 x106 -1 x120 -1 x134 -1 x148 -1 x162 -1 x176 -1 x190 -1 x204 -1 x218 -1 x232 -1 x246 -1 x260 -1 x274 -1 x288 -1 x302 -1 x316 -1 x330 >= -10;
+1 x79 +1 x93 +1 x107 +1 x121 +1 x135 +1 x149 +1 x163 +1 x177 +1 x191 +1 x205 +1 x219 +1 x233 +1 x247 +1 x261 +1 x275 +1 x289 +1 x303 +1 x317 +1 x331 >= 9;
-1 x79 -1 x93 -1 x107 -1 x121 -1 x135 -1 x149 -1 x163 -1 x177 -1 x191 -1 x205 -1 x219 -1 x233 -1 x247 -1 x261 -1 x275 -1 x289 -1 x303 -1 x317 -1 x331 >= -10;
+1 x80 +1 x94 +1 x108 +1 x122 +1 x136 +1 x150 +1 x164 +1 x178 +1 x192 +1 x206 +1 x220 +1 x234 +1 x248 +1 x262 +1 x276 +1 x290 +1 x304 +1 x318 +1 x332 >= 9;
-1 x80 -1 x94 -1 x108 -1 x122 -1 x136 -1 x150 -1 x164 -1 x178 -1 x192 -1 x206 -1 x220 -1 x234 -1 x248 -1 x262 -1 x276 -1 x290 -1 x304 -1 x318 -1 x332 >= -10;
+1 x81 +1 x95 +1 x109 +1 x123 +1 x137 +1 x151 +1 x165 +1 x179 +1 x193 +1 x207 +1 x221 +1 x235 +1 x249 +1 x263 +1 x277 +1 x291 +1 x305 +1 x319 +1 x333 >= 9;
-1 x81 -1 x95 -1 x109 -1 x123 -1 x137 -1 x151 -1 x165 -1 x179 -1 x193 -1 x207 -1 x221 -1 x235 -1 x249 -1 x263 -1 x277 -1 x291 -1 x305 -1 x319 -1 x333 >= -10;
+1 x82 +1 x96 +1 x110 +1 x124 +1 x138 +1 x152 +1 x166 +1 x180 +1 x194 +1 x208 +1 x222 +1 x236 +1 x250 +1 x264 +1 x278 +1 x292 +1 x306 +1 x320 +1 x334 >= 9;
-1 x82 -1 x96 -1 x110 -1 x124 -1 x138 -1 x152 -1 x166 -1 x180 -1 x194 -1 x208 -1 x222 -1 x236 -1 x250 -1 x264 -1 x278 -1 x292 -1 x306 -1 x320 -1 x334 >= -10;
+1 x83 +1 x97 +1 x111 +1 x125 +1 x139 +1 x153 +1 x167 +1 x181 +1 x195 +1 x209 +1 x223 +1 x237 +1 x251 +1 x265 +1 x279 +1 x293 +1 x307 +1 x321 +1 x335 >= 9;
-1 x83 -1 x97 -1 x111 -1 x125 -1 x139 -1 x153 -1 x167 -1 x181 -1 x195 -1 x209 -1 x223 -1 x237 -1 x251 -1 x265 -1 x279 -1 x293 -1 x307 -1 x321 -1 x335 >= -10;
+1 x84 +1 x98 +1 x112 +1 x126 +1 x140 +1 x154 +1 x168 +1 x182 +1 x196 +1 x210 +1 x224 +1 x238 +1 x252 +1 x266 +1 x280 +1 x294 +1 x308 +1 x322 +1 x336 >= 9;
-1 x84 -1 x98 -1 x112 -1 x126 -1 x140 -1 x154 -1 x168 -1 x182 -1 x196 -1 x210 -1 x224 -1 x238 -1 x252 -1 x266 -1 x280 -1 x294 -1 x308 -1 x322 -1 x336 >= -10;
+1 x85 +1 x99 +1 x113 +1 x127 +1 x141 +1 x155 +1 x169 +1 x183 +1 x197 +1 x211 +1 x225 +1 x239 +1 x253 +1 x267 +1 x281 +1 x295 +1 x309 +1 x323 +1 x337 >= 9;
-1 x85 -1 x99 -1 x113 -1 x127 -1 x141 -1 x155 -1 x169 -1 x183 -1 x197 -1 x211 -1 x225 -1 x239 -1 x253 -1 x267 -1 x281 -1 x295 -1 x309 -1 x323 -1 x337 >= -10;
+1 x86 +1 x100 +1 x114 +1 x128 +1 x142 +1 x156 +1 x170 +1 x184 +1 x198 +1 x212 +1 x226 +1 x240 +1 x254 +1 x268 +1 x282 +1 x296 +1 x310 +1 x324 +1 x338 >= 9;
-1 x86 -1 x100 -1 x114 -1 x128 -1 x142 -1 x156 -1 x170 -1 x184 -1 x198 -1 x212 -1 x226 -1 x240 -1 x254 -1 x268 -1 x282 -1 x296 -1 x310 -1 x324 -1 x338 >= -10;
+1 x87 +1 x101 +1 x115 +1 x129 +1 x143 +1 x157 +1 x171 +1 x185 +1 x199 +1 x213 +1 x227 +1 x241 +1 x255 +1 x269 +1 x283 +1 x297 +1 x311 +1 x325 +1 x339 >= 9;
-1 x87 -1 x101 -1 x115 -1 x129 -1 x143 -1 x157 -1 x171 -1 x185 -1 x199 -1 x213 -1 x227 -1 x241 -1 x255 -1 x269 -1 x283 -1 x297 -1 x311 -1 x325 -1 x339 >= -10;
+1 x88 +1 x102 +1 x116 +1 x130 +1 x144 +1 x158 +1 x172 +1 x186 +1 x200 +1 x214 +1 x228 +1 x242 +1 x256 +1 x270 +1 x284 +1 x298 +1 x312 +1 x326 +1 x340 >= 9;
-1 x88 -1 x102 -1 x116 -1 x130 -1 x144 -1 x158 -1 x172 -1 x186 -1 x200 -1 x214 -1 x228 -1 x242 -1 x256 -1 x270 -1 x284 -1 x298 -1 x312 -1 x326 -1 x340 >= -10;
+1 x89 +1 x103 +1 x117 +1 x131 +1 x145 +1 x159 +1 x173 +1 x187 +1 x201 +1 x215 +1 x229 +1 x243 +1 x257 +1 x271 +1 x285 +1 x299 +1 x313 +1 x327 +1 x341 >= 9;
-1 x89 -1 x103 -1 x117 -1 x131 -1 x145 -1 x159 -1 x173 -1 x187 -1 x201 -1 x215 -1 x229 -1 x243 -1 x257 -1 x271 -1 x285 -1 x299 -1 x313 -1 x327 -1 x341 >= -10;
+1 x90 +1 x104 +1 x118 +1 x132 +1 x146 +1 x160 +1 x174 +1 x188 +1 x202 +1 x216 +1 x230 +1 x244 +1 x258 +1 x272 +1 x286 +1 x300 +1 x314 +1 x328 +1 x342 >= 9;
-1 x90 -1 x104 -1 x118 -1 x132 -1 x146 -1 x160 -1 x174 -1 x188 -1 x202 -1 x216 -1 x230 -1 x244 -1 x258 -1 x272 -1 x286 -1 x300 -1 x314 -1 x328 -1 x342 >= -10;
+1 x91 +1 x105 +1 x119 +1 x133 +1 x147 +1 x161 +1 x175 +1 x189 +1 x203 +1 x217 +1 x231 +1 x245 +1 x259 +1 x273 +1 x287 +1 x301 +1 x315 +1 x329 +1 x343 >= 9;
-1 x91 -1 x105 -1 x119 -1 x133 -1 x147 -1 x161 -1 x175 -1 x189 -1 x203 -1 x217 -1 x231 -1 x245 -1 x259 -1 x273 -1 x287 -1 x301 -1 x315 -1 x329 -1 x343 >= -10;
+1 x92 +1 x106 +1 x120 +1 x134 +1 x148 +1 x162 +1 x176 +1 x190 +1 x204 +1 x218 +1 x232 +1 x246 +1 x260 +1 x274 +1 x288 +1 x302 +1 x316 +1 x330 +1 x344 >= 9;
-1 x92 -1 x106 -1 x120 -1 x134 -1 x148 -1 x162 -1 x176 -1 x190 -1 x204 -1 x218 -1 x232 -1 x246 -1 x260 -1 x274 -1 x288 -1 x302 -1 x316 -1 x330 -1 x344 >= -10;
+1 x1 +1 x16 +1 x31 +1 x46 +1 x61 +1 x76 +1 x91 +1 x106 +1 x121 +1 x136 +1 x151 +1 x166 +1 x181 +1 x196 +1 x211 +1 x226 +1 x241 +1 x256 +1 x271 >= 9;
-1 x1 -1 x16 -1 x31 -1 x46 -1 x61 -1 x76 -1 x91 -1 x106 -1 x121 -1 x136 -1 x151 -1 x166 -1 x181 -1 x196 -1 x211 -1 x226 -1 x241 -1 x256 -1 x271 >= -10;
+1 x2 +1 x17 +1 x32 +1 x47 +1 x62 +1 x77 +1 x92 +1 x107 +1 x122 +1 x137 +1 x152 +1 x167 +1 x182 +1 x197 +1 x212 +1 x227 +1 x242 +1 x257 +1 x272 >= 9;
-1 x2 -1 x17 -1 x32 -1 x47 -1 x62 -1 x77 -1 x92 -1 x107 -1 x122 -1 x137 -1 x152 -1 x167 -1 x182 -1 x197 -1 x212 -1 x227 -1 x242 -1 x257 -1 x272 >= -10;
+1 x3 +1 x18 +1 x33 +1 x48 +1 x63 +1 x78 +1 x93 +1 x108 +1 x123 +1 x138 +1 x153 +1 x168 +1 x183 +1 x198 +1 x213 +1 x228 +1 x243 +1 x258 +1 x273 >= 9;
-1 x3 -1 x18 -1 x33 -1 x48 -1 x63 -1 x78 -1 x93 -1 x108 -1 x123 -1 x138 -1 x153 -1 x168 -1 x183 -1 x198 -1 x213 -1 x228 -1 x243 -1 x258 -1 x273 >= -10;
+1 x4 +1 x19 +1 x34 +1 x49 +1 x64 +1 x79 +1 x94 +1 x109 +1 x124 +1 x139 +1 x154 +1 x169 +1 x184 +1 x199 +1 x214 +1 x229 +1 x244 +1 x259 +1 x274 >= 9;
-1 x4 -1 x19 -1 x34 -1 x49 -1 x64 -1 x79 -1 x94 -1 x109 -1 x124 -1 x139 -1 x154 -1 x169 -1 x184 -1 x199 -1 x214 -1 x229 -1 x244 -1 x259 -1 x274 >= -10;
+1 x5 +1 x20 +1 x35 +1 x50 +1 x65 +1 x80 +1 x95 +1 x110 +1 x125 +1 x140 +1 x155 +1 x170 +1 x185 +1 x200 +1 x215 +1 x230 +1 x245 +1 x260 +1 x275 >= 9;
-1 x5 -1 x20 -1 x35 -1 x50 -1 x65 -1 x80 -1 x95 -1 x110 -1 x125 -1 x140 -1 x155 -1 x170 -1 x185 -1 x200 -1 x215 -1 x230 -1 x245 -1 x260 -1 x275 >= -10;
+1 x6 +1 x21 +1 x36 +1 x51 +1 x66 +1 x81 +1 x96 +1 x111 +1 x126 +1 x141 +1 x156 +1 x171 +1 x186 +1 x201 +1 x216 +1 x231 +1 x246 +1 x261 +1 x276 >= 9;
-1 x6 -1 x21 -1 x36 -1 x51 -1 x66 -1 x81 -1 x96 -1 x111 -1 x126 -1 x141 -1 x156 -1 x171 -1 x186 -1 x201 -1 x216 -1 x231 -1 x246 -1 x261 -1 x276 >= -10;
+1 x7 +1 x22 +1 x37 +1 x52 +1 x67 +1 x82 +1 x97 +1 x112 +1 x127 +1 x142 +1 x157 +1 x172 +1 x187 +1 x202 +1 x217 +1 x232 +1 x247 +1 x262 +1 x277 >= 9;
-1 x7 -1 x22 -1 x37 -1 x52 -1 x67 -1 x82 -1 x97 -1 x112 -1 x127 -1 x142 -1 x157 -1 x172 -1 x187 -1 x202 -1 x217 -1 x232 -1 x247 -1 x262 -1 x277 >= -10;
+1 x8 +1 x23 +1 x38 +1 x53 +1 x68 +1 x83 +1 x98 +1 x113 +1 x128 +1 x143 +1 x158 +1 x173 +1 x188 +1 x203 +1 x218 +1 x233 +1 x248 +1 x263 +1 x278 >= 9;
-1 x8 -1 x23 -1 x38 -1 x53 -1 x68 -1 x83 -1 x98 -1 x113 -1 x128 -1 x143 -1 x158 -1 x173 -1 x188 -1 x203 -1 x218 -1 x233 -1 x248 -1 x263 -1 x278 >= -10;
+1 x9 +1 x24 +1 x39 +1 x54 +1 x69 +1 x84 +1 x99 +1 x114 +1 x129 +1 x144 +1 x159 +1 x174 +1 x189 +1 x204 +1 x219 +1 x234 +1 x249 +1 x264 +1 x279 >= 9;
-1 x9 -1 x24 -1 x39 -1 x54 -1 x69 -1 x84 -1 x99 -1 x114 -1 x129 -1 x144 -1 x159 -1 x174 -1 x189 -1 x204 -1 x219 -1 x234 -1 x249 -1 x264 -1 x279 >= -10;
+1 x10 +1 x25 +1 x40 +1 x55 +1 x70 +1 x85 +1 x100 +1 x115 +1 x130 +1 x145 +1 x160 +1 x175 +1 x190 +1 x205 +1 x220 +1 x235 +1 x250 +1 x265 +1 x280 >= 9;
-1 x10 -1 x25 -1 x40 -1 x55 -1 x70 -1 x85 -1 x100 -1 x115 -1 x130 -1 x145 -1 x160 -1 x175 -1 x190 -1 x205 -1 x220 -1 x235 -1 x250 -1 x265 -1 x280 >= -10;
+1 x11 +1 x26 +1 x41 +1 x56 +1 x71 +1 x86 +1 x101 +1 x116 +1 x131 +1 x146 +1 x161 +1 x176 +1 x191 +1 x206 +1 x221 +1 x236 +1 x251 +1 x266 +1 x281 >= 9;
-1 x11 -1 x26 -1 x41 -1 x56 -1 x71 -1 x86 -1 x101 -1 x116 -1 x131 -1 x146 -1 x161 -1 x176 -1 x191 -1 x206 -1 x221 -1 x236 -1 x251 -1 x266 -1 x281 >= -10;
+1 x12 +1 x27 +1 x42 +1 x57 +1 x72 +1 x87 +1 x102 +1 x117 +1 x132 +1 x147 +1 x162 +1 x177 +1 x192 +1 x207 +1 x222 +1 x237 +1 x252 +1 x267 +1 x282 >= 9;
-1 x12 -1 x27 -1 x42 -1 x57 -1 x72 -1 x87 -1 x102 -1 x117 -1 x132 -1 x147 -1 x162 -1 x177 -1 x192 -1 x207 -1 x222 -1 x237 -1 x252 -1 x267 -1 x282 >= -10;
+1 x13 +1 x28 +1 x43 +1 x58 +1 x73 +1 x88 +1 x103 +1 x118 +1 x133 +1 x148 +1 x163 +1 x178 +1 x193 +1 x208 +1 x223 +1 x238 +1 x253 +1 x268 +1 x283 >= 9;
-1 x13 -1 x28 -1 x43 -1 x58 -1 x73 -1 x88 -1 x103 -1 x118 -1 x133 -1 x148 -1 x163 -1 x178 -1 x193 -1 x208 -1 x223 -1 x238 -1 x253 -1 x268 -1 x283 >= -10;
+1 x14 +1 x29 +1 x44 +1 x59 +1 x74 +1 x89 +1 x104 +1 x119 +1 x134 +1 x149 +1 x164 +1 x179 +1 x194 +1 x209 +1 x224 +1 x239 +1 x254 +1 x269 +1 x284 >= 9;
-1 x14 -1 x29 -1 x44 -1 x59 -1 x74 -1 x89 -1 x104 -1 x119 -1 x134 -1 x149 -1 x164 -1 x179 -1 x194 -1 x209 -1 x224 -1 x239 -1 x254 -1 x269 -1 x284 >= -10;
+1 x15 +1 x30 +1 x45 +1 x60 +1 x75 +1 x90 +1 x105 +1 x120 +1 x135 +1 x150 +1 x165 +1 x180 +1 x195 +1 x210 +1 x225 +1 x240 +1 x255 +1 x270 +1 x285 >= 9;
-1 x15 -1 x30 -1 x45 -1 x60 -1 x75 -1 x90 -1 x105 -1 x120 -1 x135 -1 x150 -1 x165 -1 x180 -1 x195 -1 x210 -1 x225 -1 x240 -1 x255 -1 x270 -1 x285 >= -10;
+1 x16 +1 x31 +1 x46 +1 x61 +1 x76 +1 x91 +1 x106 +1 x121 +1 x136 +1 x151 +1 x166 +1 x181 +1 x196 +1 x211 +1 x226 +1 x241 +1 x256 +1 x271 +1 x286 >= 9;
-1 x16 -1 x31 -1 x46 -1 x61 -1 x76 -1 x91 -1 x106 -1 x121 -1 x136 -1 x151 -1 x166 -1 x181 -1 x196 -1 x211 -1 x226 -1 x241 -1 x256 -1 x271 -1 x286 >= -10;
+1 x17 +1 x32 +1 x47 +1 x62 +1 x77 +1 x92 +1 x107 +1 x122 +1 x137 +1 x152 +1 x167 +1 x182 +1 x197 +1 x212 +1 x227 +1 x242 +1 x257 +1 x272 +1 x287 >= 9;
-1 x17 -1 x32 -1 x47 -1 x62 -1 x77 -1 x92 -1 x107 -1 x122 -1 x137 -1 x152 -1 x167 -1 x182 -1 x197 -1 x212 -1 x227 -1 x242 -1 x257 -1 x272 -1 x287 >= -10;
+1 x18 +1 x33 +1 x48 +1 x63 +1 x78 +1 x93 +1 x108 +1 x123 +1 x138 +1 x153 +1 x168 +1 x183 +1 x198 +1 x213 +1 x228 +1 x243 +1 x258 +1 x273 +1 x288 >= 9;
-1 x18 -1 x33 -1 x48 -1 x63 -1 x78 -1 x93 -1 x108 -1 x123 -1 x138 -1 x153 -1 x168 -1 x183 -1 x198 -1 x213 -1 x228 -1 x243 -1 x258 -1 x273 -1 x288 >= -10;
+1 x19 +1 x34 +1 x49 +1 x64 +1 x79 +1 x94 +1 x109 +1 x124 +1 x139 +1 x154 +1 x169 +1 x184 +1 x199 +1 x214 +1 x229 +1 x244 +1 x259 +1 x274 +1 x289 >= 9;
-1 x19 -1 x34 -1 x49 -1 x64 -1 x79 -1 x94 -1 x109 -1 x124 -1 x139 -1 x154 -1 x169 -1 x184 -1 x199 -1 x214 -1 x229 -1 x244 -1 x259 -1 x274 -1 x289 >= -10;
+1 x20 +1 x35 +1 x50 +1 x65 +1 x80 +1 x95 +1 x110 +1 x125 +1 x140 +1 x155 +1 x170 +1 x185 +1 x200 +1 x215 +1 x230 +1 x245 +1 x260 +1 x275 +1 x290 >= 9;
-1 x20 -1 x35 -1 x50 -1 x65 -1 x80 -1 x95 -1 x110 -1 x125 -1 x140 -1 x155 -1 x170 -1 x185 -1 x200 -1 x215 -1 x230 -1 x245 -1 x260 -1 x275 -1 x290 >= -10;
+1 x21 +1 x36 +1 x51 +1 x66 +1 x81 +1 x96 +1 x111 +1 x126 +1 x141 +1 x156 +1 x171 +1 x186 +1 x201 +1 x216 +1 x231 +1 x246 +1 x261 +1 x276 +1 x291 >= 9;
-1 x21 -1 x36 -1 x51 -1 x66 -1 x81 -1 x96 -1 x111 -1 x126 -1 x141 -1 x156 -1 x171 -1 x186 -1 x201 -1 x216 -1 x231 -1 x246 -1 x261 -1 x276 -1 x291 >= -10;
+1 x22 +1 x37 +1 x52 +1 x67 +1 x82 +1 x97 +1 x112 +1 x127 +1 x142 +1 x157 +1 x172 +1 x187 +1 x202 +1 x217 +1 x232 +1 x247 +1 x262 +1 x277 +1 x292 >= 9;
-1 x22 -1 x37 -1 x52 -1 x67 -1 x82 -1 x97 -1 x112 -1 x127 -1 x142 -1 x157 -1 x172 -1 x187 -1 x202 -1 x217 -1 x232 -1 x247 -1 x262 -1 x277 -1 x292 >= -10;
+1 x23 +1 x38 +1 x53 +1 x68 +1 x83 +1 x98 +1 x113 +1 x128 +1 x143 +1 x158 +1 x173 +1 x188 +1 x203 +1 x218 +1 x233 +1 x248 +1 x263 +1 x278 +1 x293 >= 9;
-1 x23 -1 x38 -1 x53 -1 x68 -1 x83 -1 x98 -1 x113 -1 x128 -1 x143 -1 x158 -1 x173 -1 x188 -1 x203 -1 x218 -1 x233 -1 x248 -1 x263 -1 x278 -1 x293 >= -10;
+1 x24 +1 x39 +1 x54 +1 x69 +1 x84 +1 x99 +1 x114 +1 x129 +1 x144 +1 x159 +1 x174 +1 x189 +1 x204 +1 x219 +1 x234 +1 x249 +1 x264 +1 x279 +1 x294 >= 9;
-1 x24 -1 x39 -1 x54 -1 x69 -1 x84 -1 x99 -1 x114 -1 x129 -1 x144 -1 x159 -1 x174 -1 x189 -1 x204 -1 x219 -1 x234 -1 x249 -1 x264 -1 x279 -1 x294 >= -10;
+1 x25 +1 x40 +1 x55 +1 x70 +1 x85 +1 x100 +1 x115 +1 x130 +1 x145 +1 x160 +1 x175 +1 x190 +1 x205 +1 x220 +1 x235 +1 x250 +1 x265 +1 x280 +1 x295 >= 9;
-1 x25 -1 x40 -1 x55 -1 x70 -1 x85 -1 x100 -1 x115 -1 x130 -1 x145 -1 x160 -1 x175 -1 x190 -1 x205 -1 x220 -1 x235 -1 x250 -1 x265 -1 x280 -1 x295 >= -10;
+1 x26 +1 x41 +1 x56 +1 x71 +1 x86 +1 x101 +1 x116 +1 x131 +1 x146 +1 x161 +1 x176 +1 x191 +1 x206 +1 x221 +1 x236 +1 x251 +1 x266 +1 x281 +1 x296 >= 9;
-1 x26 -1 x41 -1 x56 -1 x71 -1 x86 -1 x101 -1 x116 -1 x131 -1 x146 -1 x161 -1 x176 -1 x191 -1 x206 -1 x221 -1 x236 -1 x251 -1 x266 -1 x281 -1 x296 >= -10;
+1 x27 +1 x42 +1 x57 +1 x72 +1 x87 +1 x102 +1 x117 +1 x132 +1 x147 +1 x162 +1 x177 +1 x192 +1 x207 +1 x222 +1 x237 +1 x252 +1 x267 +1 x282 +1 x297 >= 9;
-1 x27 -1 x42 -1 x57 -1 x72 -1 x87 -1 x102 -1 x117 -1 x132 -1 x147 -1 x162 -1 x177 -1 x192 -1 x207 -1 x222 -1 x237 -1 x252 -1 x267 -1 x282 -1 x297 >= -10;
+1 x28 +1 x43 +1 x58 +1 x73 +1 x88 +1 x103 +1 x118 +1 x133 +1 x148 +1 x163 +1 x178 +1 x193 +1 x208 +1 x223 +1 x238 +1 x253 +1 x268 +1 x283 +1 x298 >= 9;
-1 x28 -1 x43 -1 x58 -1 x73 -1 x88 -1 x103 -1 x118 -1 x133 -1 x148 -1 x163 -1 x178 -1 x193 -1 x208 -1 x223 -1 x238 -1 x253 -1 x268 -1 x283 -1 x298 >= -10;
+1 x29 +1 x44 +1 x59 +1 x74 +1 x89 +1 x104 +1 x119 +1 x134 +1 x149 +1 x164 +1 x179 +1 x194 +1 x209 +1 x224 +1 x239 +1 x254 +1 x269 +1 x284 +1 x299 >= 9;
-1 x29 -1 x44 -1 x59 -1 x74 -1 x89 -1 x104 -1 x119 -1 x134 -1 x149 -1 x164 -1 x179 -1 x194 -1 x209 -1 x224 -1 x239 -1 x254 -1 x269 -1 x284 -1 x299 >= -10;
+1 x30 +1 x45 +1 x60 +1 x75 +1 x90 +1 x105 +1 x120 +1 x135 +1 x150 +1 x165 +1 x180 +1 x195 +1 x210 +1 x225 +1 x240 +1 x255 +1 x270 +1 x285 +1 x300 >= 9;
-1 x30 -1 x45 -1 x60 -1 x75 -1 x90 -1 x105 -1 x120 -1 x135 -1 x150 -1 x165 -1 x180 -1 x195 -1 x210 -1 x225 -1 x240 -1 x255 -1 x270 -1 x285 -1 x300 >= -10;
+1 x31 +1 x46 +1 x61 +1 x76 +1 x91 +1 x106 +1 x121 +1 x136 +1 x151 +1 x166 +1 x181 +1 x196 +1 x211 +1 x226 +1 x241 +1 x256 +1 x271 +1 x286 +1 x301 >= 9;
-1 x31 -1 x46 -1 x61 -1 x76 -1 x91 -1 x106 -1 x121 -1 x136 -1 x151 -1 x166 -1 x181 -1 x196 -1 x211 -1 x226 -1 x241 -1 x256 -1 x271 -1 x286 -1 x301 >= -10;
+1 x32 +1 x47 +1 x62 +1 x77 +1 x92 +1 x107 +1 x122 +1 x137 +1 x152 +1 x167 +1 x182 +1 x197 +1 x212 +1 x227 +1 x242 +1 x257 +1 x272 +1 x287 +1 x302 >= 9;
-1 x32 -1 x47 -1 x62 -1 x77 -1 x92 -1 x107 -1 x122 -1 x137 -1 x152 -1 x167 -1 x182 -1 x197 -1 x212 -1 x227 -1 x242 -1 x257 -1 x272 -1 x287 -1 x302 >= -10;
+1 x33 +1 x48 +1 x63 +1 x78 +1 x93 +1 x108 +1 x123 +1 x138 +1 x153 +1 x168 +1 x183 +1 x198 +1 x213 +1 x228 +1 x243 +1 x258 +1 x273 +1 x288 +1 x303 >= 9;
-1 x33 -1 x48 -1 x63 -1 x78 -1 x93 -1 x108 -1 x123 -1 x138 -1 x153 -1 x168 -1 x183 -1 x198 -1 x213 -1 x228 -1 x243 -1 x258 -1 x273 -1 x288 -1 x303 >= -10;
+1 x34 +1 x49 +1 x64 +1 x79 +1 x94 +1 x109 +1 x124 +1 x139 +1 x154 +1 x169 +1 x184 +1 x199 +1 x214 +1 x229 +1 x244 +1 x259 +1 x274 +1 x289 +1 x304 >= 9;
-1 x34 -1 x49 -1 x64 -1 x79 -1 x94 -1 x109 -1 x124 -1 x139 -1 x154 -1 x169 -1 x184 -1 x199 -1 x214 -1 x229 -1 x244 -1 x259 -1 x274 -1 x289 -1 x304 >= -10;
+1 x35 +1 x50 +1 x65 +1 x80 +1 x95 +1 x110 +1 x125 +1 x140 +1 x155 +1 x170 +1 x185 +1 x200 +1 x215 +1 x230 +1 x245 +1 x260 +1 x275 +1 x290 +1 x305 >= 9;
-1 x35 -1 x50 -1 x65 -1 x80 -1 x95 -1 x110 -1 x125 -1 x140 -1 x155 -1 x170 -1 x185 -1 x200 -1 x215 -1 x230 -1 x245 -1 x260 -1 x275 -1 x290 -1 x305 >= -10;
+1 x36 +1 x51 +1 x66 +1 x81 +1 x96 +1 x111 +1 x126 +1 x141 +1 x156 +1 x171 +1 x186 +1 x201 +1 x216 +1 x231 +1 x246 +1 x261 +1 x276 +1 x291 +1 x306 >= 9;
-1 x36 -1 x51 -1 x66 -1 x81 -1 x96 -1 x111 -1 x126 -1 x141 -1 x156 -1 x171 -1 x186 -1 x201 -1 x216 -1 x231 -1 x246 -1 x261 -1 x276 -1 x291 -1 x306 >= -10;
+1 x37 +1 x52 +1 x67 +1 x82 +1 x97 +1 x112 +1 x127 +1 x142 +1 x157 +1 x172 +1 x187 +1 x202 +1 x217 +1 x232 +1 x247 +1 x262 +1 x277 +1 x292 +1 x307 >= 9;
-1 x37 -1 x52 -1 x67 -1 x82 -1 x97 -1 x112 -1 x127 -1 x142 -1 x157 -1 x172 -1 x187 -1 x202 -1 x217 -1 x232 -1 x247 -1 x262 -1 x277 -1 x292 -1 x307 >= -10;
+1 x38 +1 x53 +1 x68 +1 x83 +1 x98 +1 x113 +1 x128 +1 x143 +1 x158 +1 x173 +1 x188 +1 x203 +1 x218 +1 x233 +1 x248 +1 x263 +1 x278 +1 x293 +1 x308 >= 9;
-1 x38 -1 x53 -1 x68 -1 x83 -1 x98 -1 x113 -1 x128 -1 x143 -1 x158 -1 x173 -1 x188 -1 x203 -1 x218 -1 x233 -1 x248 -1 x263 -1 x278 -1 x293 -1 x308 >= -10;
+1 x39 +1 x54 +1 x69 +1 x84 +1 x99 +1 x114 +1 x129 +1 x144 +1 x159 +1 x174 +1 x189 +1 x204 +1 x219 +1 x234 +1 x249 +1 x264 +1 x279 +1 x294 +1 x309 >= 9;
-1 x39 -1 x54 -1 x69 -1 x84 -1 x99 -1 x114 -1 x129 -1 x144 -1 x159 -1 x174 -1 x189 -1 x204 -1 x219 -1 x234 -1 x249 -1 x264 -1 x279 -1 x294 -1 x309 >= -10;
+1 x40 +1 x55 +1 x70 +1 x85 +1 x100 +1 x115 +1 x130 +1 x145 +1 x160 +1 x175 +1 x190 +1 x205 +1 x220 +1 x235 +1 x250 +1 x265 +1 x280 +1 x295 +1 x310 >= 9;
-1 x40 -1 x55 -1 x70 -1 x85 -1 x100 -1 x115 -1 x130 -1 x145 -1 x160 -1 x175 -1 x190 -1 x205 -1 x220 -1 x235 -1 x250 -1 x265 -1 x280 -1 x295 -1 x310 >= -10;
+1 x41 +1 x56 +1 x71 +1 x86 +1 x101 +1 x116 +1 x131 +1 x146 +1 x161 +1 x176 +1 x191 +1 x206 +1 x221 +1 x236 +1 x251 +1 x266 +1 x281 +1 x296 +1 x311 >= 9;
-1 x41 -1 x56 -1 x71 -1 x86 -1 x101 -1 x116 -1 x131 -1 x146 -1 x161 -1 x176 -1 x191 -1 x206 -1 x221 -1 x236 -1 x251 -1 x266 -1 x281 -1 x296 -1 x311 >= -10;
+1 x42 +1 x57 +1 x72 +1 x87 +1 x102 +1 x117 +1 x132 +1 x147 +1 x162 +1 x177 +1 x192 +1 x207 +1 x222 +1 x237 +1 x252 +1 x267 +1 x282 +1 x297 +1 x312 >= 9;
-1 x42 -1 x57 -1 x72 -1 x87 -1 x102 -1 x117 -1 x132 -1 x147 -1 x162 -1 x177 -1 x192 -1 x207 -1 x222 -1 x237 -1 x252 -1 x267 -1 x282 -1 x297 -1 x312 >= -10;
+1 x43 +1 x58 +1 x73 +1 x88 +1 x103 +1 x118 +1 x133 +1 x148 +1 x163 +1 x178 +1 x193 +1 x208 +1 x223 +1 x238 +1 x253 +1 x268 +1 x283 +1 x298 +1 x313 >= 9;
-1 x43 -1 x58 -1 x73 -1 x88 -1 x103 -1 x118 -1 x133 -1 x148 -1 x163 -1 x178 -1 x193 -1 x208 -1 x223 -1 x238 -1 x253 -1 x268 -1 x283 -1 x298 -1 x313 >= -10;
+1 x44 +1 x59 +1 x74 +1 x89 +1 x104 +1 x119 +1 x134 +1 x149 +1 x164 +1 x179 +1 x194 +1 x209 +1 x224 +1 x239 +1 x254 +1 x269 +1 x284 +1 x299 +1 x314 >= 9;
-1 x44 -1 x59 -1 x74 -1 x89 -1 x104 -1 x119 -1 x134 -1 x149 -1 x164 -1 x179 -1 x194 -1 x209 -1 x224 -1 x239 -1 x254 -1 x269 -1 x284 -1 x299 -1 x314 >= -10;
+1 x45 +1 x60 +1 x75 +1 x90 +1 x105 +1 x120 +1 x135 +1 x150 +1 x165 +1 x180 +1 x195 +1 x210 +1 x225 +1 x240 +1 x255 +1 x270 +1 x285 +1 x300 +1 x315 >= 9;
-1 x45 -1 x60 -1 x75 -1 x90 -1 x105 -1 x120 -1 x135 -1 x150 -1 x165 -1 x180 -1 x195 -1 x210 -1 x225 -1 x240 -1 x255 -1 x270 -1 x285 -1 x300 -1 x315 >= -10;
+1 x46 +1 x61 +1 x76 +1 x91 +1 x106 +1 x121 +1 x136 +1 x151 +1 x166 +1 x181 +1 x196 +1 x211 +1 x226 +1 x241 +1 x256 +1 x271 +1 x286 +1 x301 +1 x316 >= 9;
-1 x46 -1 x61 -1 x76 -1 x91 -1 x106 -1 x121 -1 x136 -1 x151 -1 x166 -1 x181 -1 x196 -1 x211 -1 x226 -1 x241 -1 x256 -1 x271 -1 x286 -1 x301 -1 x316 >= -10;
+1 x47 +1 x62 +1 x77 +1 x92 +1 x107 +1 x122 +1 x137 +1 x152 +1 x167 +1 x182 +1 x197 +1 x212 +1 x227 +1 x242 +1 x257 +1 x272 +1 x287 +1 x302 +1 x317 >= 9;
-1 x47 -1 x62 -1 x77 -1 x92 -1 x107 -1 x122 -1 x137 -1 x152 -1 x167 -1 x182 -1 x197 -1 x212 -1 x227 -1 x242 -1 x257 -1 x272 -1 x287 -1 x302 -1 x317 >= -10;
+1 x48 +1 x63 +1 x78 +1 x93 +1 x108 +1 x123 +1 x138 +1 x153 +1 x168 +1 x183 +1 x198 +1 x213 +1 x228 +1 x243 +1 x258 +1 x273 +1 x288 +1 x303 +1 x318 >= 9;
-1 x48 -1 x63 -1 x78 -1 x93 -1 x108 -1 x123 -1 x138 -1 x153 -1 x168 -1 x183 -1 x198 -1 x213 -1 x228 -1 x243 -1 x258 -1 x273 -1 x288 -1 x303 -1 x318 >= -10;
+1 x49 +1 x64 +1 x79 +1 x94 +1 x109 +1 x124 +1 x139 +1 x154 +1 x169 +1 x184 +1 x199 +1 x214 +1 x229 +1 x244 +1 x259 +1 x274 +1 x289 +1 x304 +1 x319 >= 9;
-1 x49 -1 x64 -1 x79 -1 x94 -1 x109 -1 x124 -1 x139 -1 x154 -1 x169 -1 x184 -1 x199 -1 x214 -1 x229 -1 x244 -1 x259 -1 x274 -1 x289 -1 x304 -1 x319 >= -10;
+1 x50 +1 x65 +1 x80 +1 x95 +1 x110 +1 x125 +1 x140 +1 x155 +1 x170 +1 x185 +1 x200 +1 x215 +1 x230 +1 x245 +1 x260 +1 x275 +1 x290 +1 x305 +1 x320 >= 9;
-1 x50 -1 x65 -1 x80 -1 x95 -1 x110 -1 x125 -1 x140 -1 x155 -1 x170 -1 x185 -1 x200 -1 x215 -1 x230 -1 x245 -1 x260 -1 x275 -1 x290 -1 x305 -1 x320 >= -10;
+1 x51 +1 x66 +1 x81 +1 x96 +1 x111 +1 x126 +1 x141 +1 x156 +1 x171 +1 x186 +1 x201 +1 x216 +1 x231 +1 x246 +1 x261 +1 x276 +1 x291 +1 x306 +1 x321 >= 9;
-1 x51 -1 x66 -1 x81 -1 x96 -1 x111 -1 x126 -1 x141 -1 x156 -1 x171 -1 x186 -1 x201 -1 x216 -1 x231 -1 x246 -1 x261 -1 x276 -1 x291 -1 x306 -1 x321 >= -10;
+1 x52 +1 x67 +1 x82 +1 x97 +1 x112 +1 x127 +1 x142 +1 x157 +1 x172 +1 x187 +1 x202 +1 x217 +1 x232 +1 x247 +1 x262 +1 x277 +1 x292 +1 x307 +1 x322 >= 9;
-1 x52 -1 x67 -1 x82 -1 x97 -1 x112 -1 x127 -1 x142 -1 x157 -1 x172 -1 x187 -1 x202 -1 x217 -1 x232 -1 x247 -1 x262 -1 x277 -1 x292 -1 x307 -1 x322 >= -10;
+1 x53 +1 x68 +1 x83 +1 x98 +1 x113 +1 x128 +1 x143 +1 x158 +1 x173 +1 x188 +1 x203 +1 x218 +1 x233 +1 x248 +1 x263 +1 x278 +1 x293 +1 x308 +1 x323 >= 9;
-1 x53 -1 x68 -1 x83 -1 x98 -1 x113 -1 x128 -1 x143 -1 x158 -1 x173 -1 x188 -1 x203 -1 x218 -1 x233 -1 x248 -1 x263 -1 x278 -1 x293 -1 x308 -1 x323 >= -10;
+1 x54 +1 x69 +1 x84 +1 x99 +1 x114 +1 x129 +1 x144 +1 x159 +1 x174 +1 x189 +1 x204 +1 x219 +1 x234 +1 x249 +1 x264 +1 x279 +1 x294 +1 x309 +1 x324 >= 9;
-1 x54 -1 x69 -1 x84 -1 x99 -1 x114 -1 x129 -1 x144 -1 x159 -1 x174 -1 x189 -1 x204 -1 x219 -1 x234 -1 x249 -1 x264 -1 x279 -1 x294 -1 x309 -1 x324 >= -10;
+1 x55 +1 x70 +1 x85 +1 x100 +1 x115 +1 x130 +1 x145 +1 x160 +1 x175 +1 x190 +1 x205 +1 x220 +1 x235 +1 x250 +1 x265 +1 x280 +1 x295 +1 x310 +1 x325 >= 9;
-1 x55 -1 x70 -1 x85 -1 x100 -1 x115 -1 x130 -1 x145 -1 x160 -1 x175 -1 x190 -1 x205 -1 x220 -1 x235 -1 x250 -1 x265 -1 x280 -1 x295 -1 x310 -1 x325 >= -10;
+1 x56 +1 x71 +1 x86 +1 x101 +1 x116 +1 x131 +1 x146 +1 x161 +1 x176 +1 x191 +1 x206 +1 x221 +1 x236 +1 x251 +1 x266 +1 x281 +1 x296 +1 x311 +1 x326 >= 9;
-1 x56 -1 x71 -1 x86 -1 x101 -1 x116 -1 x131 -1 x146 -1 x161 -1 x176 -1 x191 -1 x206 -1 x221 -1 x236 -1 x251 -1 x266 -1 x281 -1 x296 -1 x311 -1 x326 >= -10;
+1 x57 +1 x72 +1 x87 +1 x102 +1 x117 +1 x132 +1 x147 +1 x162 +1 x177 +1 x192 +1 x207 +1 x222 +1 x237 +1 x252 +1 x267 +1 x282 +1 x297 +1 x312 +1 x327 >= 9;
-1 x57 -1 x72 -1 x87 -1 x102 -1 x117 -1 x132 -1 x147 -1 x162 -1 x177 -1 x192 -1 x207 -1 x222 -1 x237 -1 x252 -1 x267 -1 x282 -1 x297 -1 x312 -1 x327 >= -10;
+1 x58 +1 x73 +1 x88 +1 x103 +1 x118 +1 x133 +1 x148 +1 x163 +1 x178 +1 x193 +1 x208 +1 x223 +1 x238 +1 x253 +1 x268 +1 x283 +1 x298 +1 x313 +1 x328 >= 9;
-1 x58 -1 x73 -1 x88 -1 x103 -1 x118 -1 x133 -1 x148 -1 x163 -1 x178 -1 x193 -1 x208 -1 x223 -1 x238 -1 x253 -1 x268 -1 x283 -1 x298 -1 x313 -1 x328 >= -10;
+1 x59 +1 x74 +1 x89 +1 x104 +1 x119 +1 x134 +1 x149 +1 x164 +1 x179 +1 x194 +1 x209 +1 x224 +1 x239 +1 x254 +1 x269 +1 x284 +1 x299 +1 x314 +1 x329 >= 9;
-1 x59 -1 x74 -1 x89 -1 x104 -1 x119 -1 x134 -1 x149 -1 x164 -1 x179 -1 x194 -1 x209 -1 x224 -1 x239 -1 x254 -1 x269 -1 x284 -1 x299 -1 x314 -1 x329 >= -10;
+1 x60 +1 x75 +1 x90 +1 x105 +1 x120 +1 x135 +1 x150 +1 x165 +1 x180 +1 x195 +1 x210 +1 x225 +1 x240 +1 x255 +1 x270 +1 x285 +1 x300 +1 x315 +1 x330 >= 9;
-1 x60 -1 x75 -1 x90 -1 x105 -1 x120 -1 x135 -1 x150 -1 x165 -1 x180 -1 x195 -1 x210 -1 x225 -1 x240 -1 x255 -1 x270 -1 x285 -1 x300 -1 x315 -1 x330 >= -10;
+1 x61 +1 x76 +1 x91 +1 x106 +1 x121 +1 x136 +1 x151 +1 x166 +1 x181 +1 x196 +1 x211 +1 x226 +1 x241 +1 x256 +1 x271 +1 x286 +1 x301 +1 x316 +1 x331 >= 9;
-1 x61 -1 x76 -1 x91 -1 x106 -1 x121 -1 x136 -1 x151 -1 x166 -1 x181 -1 x196 -1 x211 -1 x226 -1 x241 -1 x256 -1 x271 -1 x286 -1 x301 -1 x316 -1 x331 >= -10;
+1 x62 +1 x77 +1 x92 +1 x107 +1 x122 +1 x137 +1 x152 +1 x167 +1 x182 +1 x197 +1 x212 +1 x227 +1 x242 +1 x257 +1 x272 +1 x287 +1 x302 +1 x317 +1 x332 >= 9;
-1 x62 -1 x77 -1 x92 -1 x107 -1 x122 -1 x137 -1 x152 -1 x167 -1 x182 -1 x197 -1 x212 -1 x227 -1 x242 -1 x257 -1 x272 -1 x287 -1 x302 -1 x317 -1 x332 >= -10;
+1 x63 +1 x78 +1 x93 +1 x108 +1 x123 +1 x138 +1 x153 +1 x168 +1 x183 +1 x198 +1 x213 +1 x228 +1 x243 +1 x258 +1 x273 +1 x288 +1 x303 +1 x318 +1 x333 >= 9;
-1 x63 -1 x78 -1 x93 -1 x108 -1 x123 -1 x138 -1 x153 -1 x168 -1 x183 -1 x198 -1 x213 -1 x228 -1 x243 -1 x258 -1 x273 -1 x288 -1 x303 -1 x318 -1 x333 >= -10;
+1 x64 +1 x79 +1 x94 +1 x109 +1 x124 +1 x139 +1 x154 +1 x169 +1 x184 +1 x199 +1 x214 +1 x229 +1 x244 +1 x259 +1 x274 +1 x289 +1 x304 +1 x319 +1 x334 >= 9;
-1 x64 -1 x79 -1 x94 -1 x109 -1 x124 -1 x139 -1 x154 -1 x169 -1 x184 -1 x199 -1 x214 -1 x229 -1 x244 -1 x259 -1 x274 -1 x289 -1 x304 -1 x319 -1 x334 >= -10;
+1 x65 +1 x80 +1 x95 +1 x110 +1 x125 +1 x140 +1 x155 +1 x170 +1 x185 +1 x200 +1 x215 +1 x230 +1 x245 +1 x260 +1 x275 +1 x290 +1 x305 +1 x320 +1 x335 >= 9;
-1 x65 -1 x80 -1 x95 -1 x110 -1 x125 -1 x140 -1 x155 -1 x170 -1 x185 -1 x200 -1 x215 -1 x230 -1 x245 -1 x260 -1 x275 -1 x290 -1 x305 -1 x320 -1 x335 >= -10;
+1 x66 +1 x81 +1 x96 +1 x111 +1 x126 +1 x141 +1 x156 +1 x171 +1 x186 +1 x201 +1 x216 +1 x231 +1 x246 +1 x261 +1 x276 +1 x291 +1 x306 +1 x321 +1 x336 >= 9;
-1 x66 -1 x81 -1 x96 -1 x111 -1 x126 -1 x141 -1 x156 -1 x171 -1 x186 -1 x201 -1 x216 -1 x231 -1 x246 -1 x261 -1 x276 -1 x291 -1 x306 -1 x321 -1 x336 >= -10;
+1 x67 +1 x82 +1 x97 +1 x112 +1 x127 +1 x142 +1 x157 +1 x172 +1 x187 +1 x202 +1 x217 +1 x232 +1 x247 +1 x262 +1 x277 +1 x292 +1 x307 +1 x322 +1 x337 >= 9;
-1 x67 -1 x82 -1 x97 -1 x112 -1 x127 -1 x142 -1 x157 -1 x172 -1 x187 -1 x202 -1 x217 -1 x232 -1 x247 -1 x262 -1 x277 -1 x292 -1 x307 -1 x322 -1 x337 >= -10;
+1 x68 +1 x83 +1 x98 +1 x113 +1 x128 +1 x143 +1 x158 +1 x173 +1 x188 +1 x203 +1 x218 +1 x233 +1 x248 +1 x263 +1 x278 +1 x293 +1 x308 +1 x323 +1 x338 >= 9;
-1 x68 -1 x83 -1 x98 -1 x113 -1 x128 -1 x143 -1 x158 -1 x173 -1 x188 -1 x203 -1 x218 -1 x233 -1 x248 -1 x263 -1 x278 -1 x293 -1 x308 -1 x323 -1 x338 >= -10;
+1 x69 +1 x84 +1 x99 +1 x114 +1 x129 +1 x144 +1 x159 +1 x174 +1 x189 +1 x204 +1 x219 +1 x234 +1 x249 +1 x264 +1 x279 +1 x294 +1 x309 +1 x324 +1 x339 >= 9;
-1 x69 -1 x84 -1 x99 -1 x114 -1 x129 -1 x144 -1 x159 -1 x174 -1 x189 -1 x204 -1 x219 -1 x234 -1 x249 -1 x264 -1 x279 -1 x294 -1 x309 -1 x324 -1 x339 >= -10;
+1 x70 +1 x85 +1 x100 +1 x115 +1 x130 +1 x145 +1 x160 +1 x175 +1 x190 +1 x205 +1 x220 +1 x235 +1 x250 +1 x265 +1 x280 +1 x295 +1 x310 +1 x325 +1 x340 >= 9;
-1 x70 -1 x85 -1 x100 -1 x115 -1 x130 -1 x145 -1 x160 -1 x175 -1 x190 -1 x205 -1 x220 -1 x235 -1 x250 -1 x265 -1 x280 -1 x295 -1 x310 -1 x325 -1 x340 >= -10;
+1 x71 +1 x86 +1 x101 +1 x116 +1 x131 +1 x146 +1 x161 +1 x176 +1 x191 +1 x206 +1 x221 +1 x236 +1 x251 +1 x266 +1 x281 +1 x296 +1 x311 +1 x326 +1 x341 >= 9;
-1 x71 -1 x86 -1 x101 -1 x116 -1 x131 -1 x146 -1 x161 -1 x176 -1 x191 -1 x206 -1 x221 -1 x236 -1 x251 -1 x266 -1 x281 -1 x296 -1 x311 -1 x326 -1 x341 >= -10;
+1 x72 +1 x87 +1 x102 +1 x117 +1 x132 +1 x147 +1 x162 +1 x177 +1 x192 +1 x207 +1 x222 +1 x237 +1 x252 +1 x267 +1 x282 +1 x297 +1 x312 +1 x327 +1 x342 >= 9;
-1 x72 -1 x87 -1 x102 -1 x117 -1 x132 -1 x147 -1 x162 -1 x177 -1 x192 -1 x207 -1 x222 -1 x237 -1 x252 -1 x267 -1 x282 -1 x297 -1 x312 -1 x327 -1 x342 >= -10;
+1 x73 +1 x88 +1 x103 +1 x118 +1 x133 +1 x148 +1 x163 +1 x178 +1 x193 +1 x208 +1 x223 +1 x238 +1 x253 +1 x268 +1 x283 +1 x298 +1 x313 +1 x328 +1 x343 >= 9;
-1 x73 -1 x88 -1 x103 -1 x118 -1 x133 -1 x148 -1 x163 -1 x178 -1 x193 -1 x208 -1 x223 -1 x238 -1 x253 -1 x268 -1 x283 -1 x298 -1 x313 -1 x328 -1 x343 >= -10;
+1 x74 +1 x89 +1 x104 +1 x119 +1 x134 +1 x149 +1 x164 +1 x179 +1 x194 +1 x209 +1 x224 +1 x239 +1 x254 +1 x269 +1 x284 +1 x299 +1 x314 +1 x329 +1 x344 >= 9;
-1 x74 -1 x89 -1 x104 -1 x119 -1 x134 -1 x149 -1 x164 -1 x179 -1 x194 -1 x209 -1 x224 -1 x239 -1 x254 -1 x269 -1 x284 -1 x299 -1 x314 -1 x329 -1 x344 >= -10;
+1 x1 +1 x17 +1 x33 +1 x49 +1 x65 +1 x81 +1 x97 +1 x113 +1 x129 +1 x145 +1 x161 +1 x177 +1 x193 +1 x209 +1 x225 +1 x241 +1 x257 +1 x273 +1 x289 >= 9;
-1 x1 -1 x17 -1 x33 -1 x49 -1 x65 -1 x81 -1 x97 -1 x113 -1 x129 -1 x145 -1 x161 -1 x177 -1 x193 -1 x209 -1 x225 -1 x241 -1 x257 -1 x273 -1 x289 >= -10;
+1 x2 +1 x18 +1 x34 +1 x50 +1 x66 +1 x82 +1 x98 +1 x114 +1 x130 +1 x146 +1 x162 +1 x178 +1 x194 +1 x210 +1 x226 +1 x242 +1 x258 +1 x274 +1 x290 >= 9;
-1 x2 -1 x18 -1 x34 -1 x50 -1 x66 -1 x82 -1 x98 -1 x114 -1 x130 -1 x146 -1 x162 -1 x178 -1 x194 -1 x210 -1 x226 -1 x242 -1 x258 -1 x274 -1 x290 >= -10;
+1 x3 +1 x19 +1 x35 +1 x51 +1 x67 +1 x83 +1 x99 +1 x115 +1 x131 +1 x147 +1 x163 +1 x179 +1 x195 +1 x211 +1 x227 +1 x243 +1 x259 +1 x275 +1 x291 >= 9;
-1 x3 -1 x19 -1 x35 -1 x51 -1 x67 -1 x83 -1 x99 -1 x115 -1 x131 -1 x147 -1 x163 -1 x179 -1 x195 -1 x211 -1 x227 -1 x243 -1 x259 -1 x275 -1 x291 >= -10;
+1 x4 +1 x20 +1 x36 +1 x52 +1 x68 +1 x84 +1 x100 +1 x116 +1 x132 +1 x148 +1 x164 +1 x180 +1 x196 +1 x212 +1 x228 +1 x244 +1 x260 +1 x276 +1 x292 >= 9;
-1 x4 -1 x20 -1 x36 -1 x52 -1 x68 -1 x84 -1 x100 -1 x116 -1 x132 -1 x148 -1 x164 -1 x180 -1 x196 -1 x212 -1 x228 -1 x244 -1 x260 -1 x276 -1 x292 >= -10;
+1 x5 +1 x21 +1 x37 +1 x53 +1 x69 +1 x85 +1 x101 +1 x117 +1 x133 +1 x149 +1 x165 +1 x181 +1 x197 +1 x213 +1 x229 +1 x245 +1 x261 +1 x277 +1 x293 >= 9;
-1 x5 -1 x21 -1 x37 -1 x53 -1 x69 -1 x85 -1 x101 -1 x117 -1 x133 -1 x149 -1 x165 -1 x181 -1 x197 -1 x213 -1 x229 -1 x245 -1 x261 -1 x277 -1 x293 >= -10;
+1 x6 +1 x22 +1 x38 +1 x54 +1 x70 +1 x86 +1 x102 +1 x118 +1 x134 +1 x150 +1 x166 +1 x182 +1 x198 +1 x214 +1 x230 +1 x246 +1 x262 +1 x278 +1 x294 >= 9;
-1 x6 -1 x22 -1 x38 -1 x54 -1 x70 -1 x86 -1 x102 -1 x118 -1 x134 -1 x150 -1 x166 -1 x182 -1 x198 -1 x214 -1 x230 -1 x246 -1 x262 -1 x278 -1 x294 >= -10;
+1 x7 +1 x23 +1 x39 +1 x55 +1 x71 +1 x87 +1 x103 +1 x119 +1 x135 +1 x151 +1 x167 +1 x183 +1 x199 +1 x215 +1 x231 +1 x247 +1 x263 +1 x279 +1 x295 >= 9;
-1 x7 -1 x23 -1 x39 -1 x55 -1 x71 -1 x87 -1 x103 -1 x119 -1 x135 -1 x151 -1 x167 -1 x183 -1 x199 -1 x215 -1 x231 -1 x247 -1 x263 -1 x279 -1 x295 >= -10;
+1 x8 +1 x24 +1 x40 +1 x56 +1 x72 +1 x88 +1 x104 +1 x120 +1 x136 +1 x152 +1 x168 +1 x184 +1 x200 +1 x216 +1 x232 +1 x248 +1 x264 +1 x280 +1 x296 >= 9;
-1 x8 -1 x24 -1 x40 -1 x56 -1 x72 -1 x88 -1 x104 -1 x120 -1 x136 -1 x152 -1 x168 -1 x184 -1 x200 -1 x216 -1 x232 -1 x248 -1 x264 -1 x280 -1 x296 >= -10;
+1 x9 +1 x25 +1 x41 +1 x57 +1 x73 +1 x89 +1 x105 +1 x121 +1 x137 +1 x153 +1 x169 +1 x185 +1 x201 +1 x217 +1 x233 +1 x249 +1 x265 +1 x281 +1 x297 >= 9;
-1 x9 -1 x25 -1 x41 -1 x57 -1 x73 -1 x89 -1 x105 -1 x121 -1 x137 -1 x153 -1 x169 -1 x185 -1 x201 -1 x217 -1 x233 -1 x249 -1 x265 -1 x281 -1 x297 >= -10;
+1 x10 +1 x26 +1 x42 +1 x58 +1 x74 +1 x90 +1 x106 +1 x122 +1 x138 +1 x154 +1 x170 +1 x186 +1 x202 +1 x218 +1 x234 +1 x250 +1 x266 +1 x282 +1 x298 >= 9;
-1 x10 -1 x26 -1 x42 -1 x58 -1 x74 -1 x90 -1 x106 -1 x122 -1 x138 -1 x154 -1 x170 -1 x186 -1 x202 -1 x218 -1 x234 -1 x250 -1 x266 -1 x282 -1 x298 >= -10;
+1 x11 +1 x27 +1 x43 +1 x59 +1 x75 +1 x91 +1 x107 +1 x123 +1 x139 +1 x155 +1 x171 +1 x187 +1 x203 +1 x219 +1 x235 +1 x251 +1 x267 +1 x283 +1 x299 >= 9;
-1 x11 -1 x27 -1 x43 -1 x59 -1 x75 -1 x91 -1 x107 -1 x123 -1 x139 -1 x155 -1 x171 -1 x187 -1 x203 -1 x219 -1 x235 -1 x251 -1 x267 -1 x283 -1 x299 >= -10;
+1 x12 +1 x28 +1 x44 +1 x60 +1 x76 +1 x92 +1 x108 +1 x124 +1 x140 +1 x156 +1 x172 +1 x188 +1 x204 +1 x220 +1 x236 +1 x252 +1 x268 +1 x284 +1 x300 >= 9;
-1 x12 -1 x28 -1 x44 -1 x60 -1 x76 -1 x92 -1 x108 -1 x124 -1 x140 -1 x156 -1 x172 -1 x188 -1 x204 -1 x220 -1 x236 -1 x252 -1 x268 -1 x284 -1 x300 >= -10;
+1 x13 +1 x29 +1 x45 +1 x61 +1 x77 +1 x93 +1 x109 +1 x125 +1 x141 +1 x157 +1 x173 +1 x189 +1 x205 +1 x221 +1 x237 +1 x253 +1 x269 +1 x285 +1 x301 >= 9;
-1 x13 -1 x29 -1 x45 -1 x61 -1 x77 -1 x93 -1 x109 -1 x125 -1 x141 -1 x157 -1 x173 -1 x189 -1 x205 -1 x221 -1 x237 -1 x253 -1 x269 -1 x285 -1 x301 >= -10;
+1 x14 +1 x30 +1 x46 +1 x62 +1 x78 +1 x94 +1 x110 +1 x126 +1 x142 +1 x158 +1 x174 +1 x190 +1 x206 +1 x222 +1 x238 +1 x254 +1 x270 +1 x286 +1 x302 >= 9;
-1 x14 -1 x30 -1 x46 -1 x62 -1 x78 -1 x94 -1 x110 -1 x126 -1 x142 -1 x158 -1 x174 -1 x190 -1 x206 -1 x222 -1 x238 -1 x254 -1 x270 -1 x286 -1 x302 >= -10;
+1 x15 +1 x31 +1 x47 +1 x63 +1 x79 +1 x95 +1 x111 +1 x127 +1 x143 +1 x159 +1 x175 +1 x191 +1 x207 +1 x223 +1 x239 +1 x255 +1 x271 +1 x287 +1 x303 >= 9;
-1 x15 -1 x31 -1 x47 -1 x63 -1 x79 -1 x95 -1 x111 -1 x127 -1 x143 -1 x159 -1 x175 -1 x191 -1 x207 -1 x223 -1 x239 -1 x255 -1 x271 -1 x287 -1 x303 >= -10;
+1 x16 +1 x32 +1 x48 +1 x64 +1 x80 +1 x96 +1 x112 +1 x128 +1 x144 +1 x160 +1 x176 +1 x192 +1 x208 +1 x224 +1 x240 +1 x256 +1 x272 +1 x288 +1 x304 >= 9;
-1 x16 -1 x32 -1 x48 -1 x64 -1 x80 -1 x96 -1 x112 -1 x128 -1 x144 -1 x160 -1 x176 -1 x192 -1 x208 -1 x224 -1 x240 -1 x256 -1 x272 -1 x288 -1 x304 >= -10;
+1 x17 +1 x33 +1 x49 +1 x65 +1 x81 +1 x97 +1 x113 +1 x129 +1 x145 +1 x161 +1 x177 +1 x193 +1 x209 +1 x225 +1 x241 +1 x257 +1 x273 +1 x289 +1 x305 >= 9;
-1 x17 -1 x33 -1 x49 -1 x65 -1 x81 -1 x97 -1 x113 -1 x129 -1 x145 -1 x161 -1 x177 -1 x193 -1 x209 -1 x225 -1 x241 -1 x257 -1 x273 -1 x289 -1 x305 >= -10;
+1 x18 +1 x34 +1 x50 +1 x66 +1 x82 +1 x98 +1 x114 +1 x130 +1 x146 +1 x162 +1 x178 +1 x194 +1 x210 +1 x226 +1 x242 +1 x258 +1 x274 +1 x290 +1 x306 >= 9;
-1 x18 -1 x34 -1 x50 -1 x66 -1 x82 -1 x98 -1 x114 -1 x130 -1 x146 -1 x162 -1 x178 -1 x194 -1 x210 -1 x226 -1 x242 -1 x258 -1 x274 -1 x290 -1 x306 >= -10;
+1 x19 +1 x35 +1 x51 +1 x67 +1 x83 +1 x99 +1 x115 +1 x131 +1 x147 +1 x163 +1 x179 +1 x195 +1 x211 +1 x227 +1 x243 +1 x259 +1 x275 +1 x291 +1 x307 >= 9;
-1 x19 -1 x35 -1 x51 -1 x67 -1 x83 -1 x99 -1 x115 -1 x131 -1 x147 -1 x163 -1 x179 -1 x195 -1 x211 -1 x227 -1 x243 -1 x259 -1 x275 -1 x291 -1 x307 >= -10;
+1 x20 +1 x36 +1 x52 +1 x68 +1 x84 +1 x100 +1 x116 +1 x132 +1 x148 +1 x164 +1 x180 +1 x196 +1 x212 +1 x228 +1 x244 +1 x260 +1 x276 +1 x292 +1 x308 >= 9;
-1 x20 -1 x36 -1 x52 -1 x68 -1 x84 -1 x100 -1 x116 -1 x132 -1 x148 -1 x164 -1 x180 -1 x196 -1 x212 -1 x228 -1 x244 -1 x260 -1 x276 -1 x292 -1 x308 >= -10;
+1 x21 +1 x37 +1 x53 +1 x69 +1 x85 +1 x101 +1 x117 +1 x133 +1 x149 +1 x165 +1 x181 +1 x197 +1 x213 +1 x229 +1 x245 +1 x261 +1 x277 +1 x293 +1 x309 >= 9;
-1 x21 -1 x37 -1 x53 -1 x69 -1 x85 -1 x101 -1 x117 -1 x133 -1 x149 -1 x165 -1 x181 -1 x197 -1 x213 -1 x229 -1 x245 -1 x261 -1 x277 -1 x293 -1 x309 >= -10;
+1 x22 +1 x38 +1 x54 +1 x70 +1 x86 +1 x102 +1 x118 +1 x134 +1 x150 +1 x166 +1 x182 +1 x198 +1 x214 +1 x230 +1 x246 +1 x262 +1 x278 +1 x294 +1 x310 >= 9;
-1 x22 -1 x38 -1 x54 -1 x70 -1 x86 -1 x102 -1 x118 -1 x134 -1 x150 -1 x166 -1 x182 -1 x198 -1 x214 -1 x230 -1 x246 -1 x262 -1 x278 -1 x294 -1 x310 >= -10;
+1 x23 +1 x39 +1 x55 +1 x71 +1 x87 +1 x103 +1 x119 +1 x135 +1 x151 +1 x167 +1 x183 +1 x199 +1 x215 +1 x231 +1 x247 +1 x263 +1 x279 +1 x295 +1 x311 >= 9;
-1 x23 -1 x39 -1 x55 -1 x71 -1 x87 -1 x103 -1 x119 -1 x135 -1 x151 -1 x167 -1 x183 -1 x199 -1 x215 -1 x231 -1 x247 -1 x263 -1 x279 -1 x295 -1 x311 >= -10;
+1 x24 +1 x40 +1 x56 +1 x72 +1 x88 +1 x104 +1 x120 +1 x136 +1 x152 +1 x168 +1 x184 +1 x200 +1 x216 +1 x232 +1 x248 +1 x264 +1 x280 +1 x296 +1 x312 >= 9;
-1 x24 -1 x40 -1 x56 -1 x72 -1 x88 -1 x104 -1 x120 -1 x136 -1 x152 -1 x168 -1 x184 -1 x200 -1 x216 -1 x232 -1 x248 -1 x264 -1 x280 -1 x296 -1 x312 >= -10;
+1 x25 +1 x41 +1 x57 +1 x73 +1 x89 +1 x105 +1 x121 +1 x137 +1 x153 +1 x169 +1 x185 +1 x201 +1 x217 +1 x233 +1 x249 +1 x265 +1 x281 +1 x297 +1 x313 >= 9;
-1 x25 -1 x41 -1 x57 -1 x73 -1 x89 -1 x105 -1 x121 -1 x137 -1 x153 -1 x169 -1 x185 -1 x201 -1 x217 -1 x233 -1 x249 -1 x265 -1 x281 -1 x297 -1 x313 >= -10;
+1 x26 +1 x42 +1 x58 +1 x74 +1 x90 +1 x106 +1 x122 +1 x138 +1 x154 +1 x170 +1 x186 +1 x202 +1 x218 +1 x234 +1 x250 +1 x266 +1 x282 +1 x298 +1 x314 >= 9;
-1 x26 -1 x42 -1 x58 -1 x74 -1 x90 -1 x106 -1 x122 -1 x138 -1 x154 -1 x170 -1 x186 -1 x202 -1 x218 -1 x234 -1 x250 -1 x266 -1 x282 -1 x298 -1 x314 >= -10;
+1 x27 +1 x43 +1 x59 +1 x75 +1 x91 +1 x107 +1 x123 +1 x139 +1 x155 +1 x171 +1 x187 +1 x203 +1 x219 +1 x235 +1 x251 +1 x267 +1 x283 +1 x299 +1 x315 >= 9;
-1 x27 -1 x43 -1 x59 -1 x75 -1 x91 -1 x107 -1 x123 -1 x139 -1 x155 -1 x171 -1 x187 -1 x203 -1 x219 -1 x235 -1 x251 -1 x267 -1 x283 -1 x299 -1 x315 >= -10;
+1 x28 +1 x44 +1 x60 +1 x76 +1 x92 +1 x108 +1 x124 +1 x140 +1 x156 +1 x172 +1 x188 +1 x204 +1 x220 +1 x236 +1 x252 +1 x268 +1 x284 +1 x300 +1 x316 >= 9;
-1 x28 -1 x44 -1 x60 -1 x76 -1 x92 -1 x108 -1 x124 -1 x140 -1 x156 -1 x172 -1 x188 -1 x204 -1 x220 -1 x236 -1 x252 -1 x268 -1 x284 -1 x300 -1 x316 >= -10;
+1 x29 +1 x45 +1 x61 +1 x77 +1 x93 +1 x109 +1 x125 +1 x141 +1 x157 +1 x173 +1 x189 +1 x205 +1 x221 +1 x237 +1 x253 +1 x269 +1 x285 +1 x301 +1 x317 >= 9;
-1 x29 -1 x45 -1 x61 -1 x77 -1 x93 -1 x109 -1 x125 -1 x141 -1 x157 -1 x173 -1 x189 -1 x205 -1 x221 -1 x237 -1 x253 -1 x269 -1 x285 -1 x301 -1 x317 >= -10;
+1 x30 +1 x46 +1 x62 +1 x78 +1 x94 +1 x110 +1 x126 +1 x142 +1 x158 +1 x174 +1 x190 +1 x206 +1 x222 +1 x238 +1 x254 +1 x270 +1 x286 +1 x302 +1 x318 >= 9;
-1 x30 -1 x46 -1 x62 -1 x78 -1 x94 -1 x110 -1 x126 -1 x142 -1 x158 -1 x174 -1 x190 -1 x206 -1 x222 -1 x238 -1 x254 -1 x270 -1 x286 -1 x302 -1 x318 >= -10;
+1 x31 +1 x47 +1 x63 +1 x79 +1 x95 +1 x111 +1 x127 +1 x143 +1 x159 +1 x175 +1 x191 +1 x207 +1 x223 +1 x239 +1 x255 +1 x271 +1 x287 +1 x303 +1 x319 >= 9;
-1 x31 -1 x47 -1 x63 -1 x79 -1 x95 -1 x111 -1 x127 -1 x143 -1 x159 -1 x175 -1 x191 -1 x207 -1 x223 -1 x239 -1 x255 -1 x271 -1 x287 -1 x303 -1 x319 >= -10;
+1 x32 +1 x48 +1 x64 +1 x80 +1 x96 +1 x112 +1 x128 +1 x144 +1 x160 +1 x176 +1 x192 +1 x208 +1 x224 +1 x240 +1 x256 +1 x272 +1 x288 +1 x304 +1 x320 >= 9;
-1 x32 -1 x48 -1 x64 -1 x80 -1 x96 -1 x112 -1 x128 -1 x144 -1 x160 -1 x176 -1 x192 -1 x208 -1 x224 -1 x240 -1 x256 -1 x272 -1 x288 -1 x304 -1 x320 >= -10;
+1 x33 +1 x49 +1 x65 +1 x81 +1 x97 +1 x113 +1 x129 +1 x145 +1 x161 +1 x177 +1 x193 +1 x209 +1 x225 +1 x241 +1 x257 +1 x273 +1 x289 +1 x305 +1 x321 >= 9;
-1 x33 -1 x49 -1 x65 -1 x81 -1 x97 -1 x113 -1 x129 -1 x145 -1 x161 -1 x177 -1 x193 -1 x209 -1 x225 -1 x241 -1 x257 -1 x273 -1 x289 -1 x305 -1 x321 >= -10;
+1 x34 +1 x50 +1 x66 +1 x82 +1 x98 +1 x114 +1 x130 +1 x146 +1 x162 +1 x178 +1 x194 +1 x210 +1 x226 +1 x242 +1 x258 +1 x274 +1 x290 +1 x306 +1 x322 >= 9;
-1 x34 -1 x50 -1 x66 -1 x82 -1 x98 -1 x114 -1 x130 -1 x146 -1 x162 -1 x178 -1 x194 -1 x210 -1 x226 -1 x242 -1 x258 -1 x274 -1 x290 -1 x306 -1 x322 >= -10;
+1 x35 +1 x51 +1 x67 +1 x83 +1 x99 +1 x115 +1 x131 +1 x147 +1 x163 +1 x179 +1 x195 +1 x211 +1 x227 +1 x243 +1 x259 +1 x275 +1 x291 +1 x307 +1 x323 >= 9;
-1 x35 -1 x51 -1 x67 -1 x83 -1 x99 -1 x115 -1 x131 -1 x147 -1 x163 -1 x179 -1 x195 -1 x211 -1 x227 -1 x243 -1 x259 -1 x275 -1 x291 -1 x307 -1 x323 >= -10;
+1 x36 +1 x52 +1 x68 +1 x84 +1 x100 +1 x116 +1 x132 +1 x148 +1 x164 +1 x180 +1 x196 +1 x212 +1 x228 +1 x244 +1 x260 +1 x276 +1 x292 +1 x308 +1 x324 >= 9;
-1 x36 -1 x52 -1 x68 -1 x84 -1 x100 -1 x116 -1 x132 -1 x148 -1 x164 -1 x180 -1 x196 -1 x212 -1 x228 -1 x244 -1 x260 -1 x276 -1 x292 -1 x308 -1 x324 >= -10;
+1 x37 +1 x53 +1 x69 +1 x85 +1 x101 +1 x117 +1 x133 +1 x149 +1 x165 +1 x181 +1 x197 +1 x213 +1 x229 +1 x245 +1 x261 +1 x277 +1 x293 +1 x309 +1 x325 >= 9;
-1 x37 -1 x53 -1 x69 -1 x85 -1 x101 -1 x117 -1 x133 -1 x149 -1 x165 -1 x181 -1 x197 -1 x213 -1 x229 -1 x245 -1 x261 -1 x277 -1 x293 -1 x309 -1 x325 >= -10;
+1 x38 +1 x54 +1 x70 +1 x86 +1 x102 +1 x118 +1 x134 +1 x150 +1 x166 +1 x182 +1 x198 +1 x214 +1 x230 +1 x246 +1 x262 +1 x278 +1 x294 +1 x310 +1 x326 >= 9;
-1 x38 -1 x54 -1 x70 -1 x86 -1 x102 -1 x118 -1 x134 -1 x150 -1 x166 -1 x182 -1 x198 -1 x214 -1 x230 -1 x246 -1 x262 -1 x278 -1 x294 -1 x310 -1 x326 >= -10;
+1 x39 +1 x55 +1 x71 +1 x87 +1 x103 +1 x119 +1 x135 +1 x151 +1 x167 +1 x183 +1 x199 +1 x215 +1 x231 +1 x247 +1 x263 +1 x279 +1 x295 +1 x311 +1 x327 >= 9;
-1 x39 -1 x55 -1 x71 -1 x87 -1 x103 -1 x119 -1 x135 -1 x151 -1 x167 -1 x183 -1 x199 -1 x215 -1 x231 -1 x247 -1 x263 -1 x279 -1 x295 -1 x311 -1 x327 >= -10;
+1 x40 +1 x56 +1 x72 +1 x88 +1 x104 +1 x120 +1 x136 +1 x152 +1 x168 +1 x184 +1 x200 +1 x216 +1 x232 +1 x248 +1 x264 +1 x280 +1 x296 +1 x312 +1 x328 >= 9;
-1 x40 -1 x56 -1 x72 -1 x88 -1 x104 -1 x120 -1 x136 -1 x152 -1 x168 -1 x184 -1 x200 -1 x216 -1 x232 -1 x248 -1 x264 -1 x280 -1 x296 -1 x312 -1 x328 >= -10;
+1 x41 +1 x57 +1 x73 +1 x89 +1 x105 +1 x121 +1 x137 +1 x153 +1 x169 +1 x185 +1 x201 +1 x217 +1 x233 +1 x249 +1 x265 +1 x281 +1 x297 +1 x313 +1 x329 >= 9;
-1 x41 -1 x57 -1 x73 -1 x89 -1 x105 -1 x121 -1 x137 -1 x153 -1 x169 -1 x185 -1 x201 -1 x217 -1 x233 -1 x249 -1 x265 -1 x281 -1 x297 -1 x313 -1 x329 >= -10;
+1 x42 +1 x58 +1 x74 +1 x90 +1 x106 +1 x122 +1 x138 +1 x154 +1 x170 +1 x186 +1 x202 +1 x218 +1 x234 +1 x250 +1 x266 +1 x282 +1 x298 +1 x314 +1 x330 >= 9;
-1 x42 -1 x58 -1 x74 -1 x90 -1 x106 -1 x122 -1 x138 -1 x154 -1 x170 -1 x186 -1 x202 -1 x218 -1 x234 -1 x250 -1 x266 -1 x282 -1 x298 -1 x314 -1 x330 >= -10;
+1 x43 +1 x59 +1 x75 +1 x91 +1 x107 +1 x123 +1 x139 +1 x155 +1 x171 +1 x187 +1 x203 +1 x219 +1 x235 +1 x251 +1 x267 +1 x283 +1 x299 +1 x315 +1 x331 >= 9;
-1 x43 -1 x59 -1 x75 -1 x91 -1 x107 -1 x123 -1 x139 -1 x155 -1 x171 -1 x187 -1 x203 -1 x219 -1 x235 -1 x251 -1 x267 -1 x283 -1 x299 -1 x315 -1 x331 >= -10;
+1 x44 +1 x60 +1 x76 +1 x92 +1 x108 +1 x124 +1 x140 +1 x156 +1 x172 +1 x188 +1 x204 +1 x220 +1 x236 +1 x252 +1 x268 +1 x284 +1 x300 +1 x316 +1 x332 >= 9;
-1 x44 -1 x60 -1 x76 -1 x92 -1 x108 -1 x124 -1 x140 -1 x156 -1 x172 -1 x188 -1 x204 -1 x220 -1 x236 -1 x252 -1 x268 -1 x284 -1 x300 -1 x316 -1 x332 >= -10;
+1 x45 +1 x61 +1 x77 +1 x93 +1 x109 +1 x125 +1 x141 +1 x157 +1 x173 +1 x189 +1 x205 +1 x221 +1 x237 +1 x253 +1 x269 +1 x285 +1 x301 +1 x317 +1 x333 >= 9;
-1 x45 -1 x61 -1 x77 -1 x93 -1 x109 -1 x125 -1 x141 -1 x157 -1 x173 -1 x189 -1 x205 -1 x221 -1 x237 -1 x253 -1 x269 -1 x285 -1 x301 -1 x317 -1 x333 >= -10;
+1 x46 +1 x62 +1 x78 +1 x94 +1 x110 +1 x126 +1 x142 +1 x158 +1 x174 +1 x190 +1 x206 +1 x222 +1 x238 +1 x254 +1 x270 +1 x286 +1 x302 +1 x318 +1 x334 >= 9;
-1 x46 -1 x62 -1 x78 -1 x94 -1 x110 -1 x126 -1 x142 -1 x158 -1 x174 -1 x190 -1 x206 -1 x222 -1 x238 -1 x254 -1 x270 -1 x286 -1 x302 -1 x318 -1 x334 >= -10;
+1 x47 +1 x63 +1 x79 +1 x95 +1 x111 +1 x127 +1 x143 +1 x159 +1 x175 +1 x191 +1 x207 +1 x223 +1 x239 +1 x255 +1 x271 +1 x287 +1 x303 +1 x319 +1 x335 >= 9;
-1 x47 -1 x63 -1 x79 -1 x95 -1 x111 -1 x127 -1 x143 -1 x159 -1 x175 -1 x191 -1 x207 -1 x223 -1 x239 -1 x255 -1 x271 -1 x287 -1 x303 -1 x319 -1 x335 >= -10;
+1 x48 +1 x64 +1 x80 +1 x96 +1 x112 +1 x128 +1 x144 +1 x160 +1 x176 +1 x192 +1 x208 +1 x224 +1 x240 +1 x256 +1 x272 +1 x288 +1 x304 +1 x320 +1 x336 >= 9;
-1 x48 -1 x64 -1 x80 -1 x96 -1 x112 -1 x128 -1 x144 -1 x160 -1 x176 -1 x192 -1 x208 -1 x224 -1 x240 -1 x256 -1 x272 -1 x288 -1 x304 -1 x320 -1 x336 >= -10;
+1 x49 +1 x65 +1 x81 +1 x97 +1 x113 +1 x129 +1 x145 +1 x161 +1 x177 +1 x193 +1 x209 +1 x225 +1 x241 +1 x257 +1 x273 +1 x289 +1 x305 +1 x321 +1 x337 >= 9;
-1 x49 -1 x65 -1 x81 -1 x97 -1 x113 -1 x129 -1 x145 -1 x161 -1 x177 -1 x193 -1 x209 -1 x225 -1 x241 -1 x257 -1 x273 -1 x289 -1 x305 -1 x321 -1 x337 >= -10;
+1 x50 +1 x66 +1 x82 +1 x98 +1 x114 +1 x130 +1 x146 +1 x162 +1 x178 +1 x194 +1 x210 +1 x226 +1 x242 +1 x258 +1 x274 +1 x290 +1 x306 +1 x322 +1 x338 >= 9;
-1 x50 -1 x66 -1 x82 -1 x98 -1 x114 -1 x130 -1 x146 -1 x162 -1 x178 -1 x194 -1 x210 -1 x226 -1 x242 -1 x258 -1 x274 -1 x290 -1 x306 -1 x322 -1 x338 >= -10;
+1 x51 +1 x67 +1 x83 +1 x99 +1 x115 +1 x131 +1 x147 +1 x163 +1 x179 +1 x195 +1 x211 +1 x227 +1 x243 +1 x259 +1 x275 +1 x291 +1 x307 +1 x323 +1 x339 >= 9;
-1 x51 -1 x67 -1 x83 -1 x99 -1 x115 -1 x131 -1 x147 -1 x163 -1 x179 -1 x195 -1 x211 -1 x227 -1 x243 -1 x259 -1 x275 -1 x291 -1 x307 -1 x323 -1 x339 >= -10;
+1 x52 +1 x68 +1 x84 +1 x100 +1 x116 +1 x132 +1 x148 +1 x164 +1 x180 +1 x196 +1 x212 +1 x228 +1 x244 +1 x260 +1 x276 +1 x292 +1 x308 +1 x324 +1 x340 >= 9;
-1 x52 -1 x68 -1 x84 -1 x100 -1 x116 -1 x132 -1 x148 -1 x164 -1 x180 -1 x196 -1 x212 -1 x228 -1 x244 -1 x260 -1 x276 -1 x292 -1 x308 -1 x324 -1 x340 >= -10;
+1 x53 +1 x69 +1 x85 +1 x101 +1 x117 +1 x133 +1 x149 +1 x165 +1 x181 +1 x197 +1 x213 +1 x229 +1 x245 +1 x261 +1 x277 +1 x293 +1 x309 +1 x325 +1 x341 >= 9;
-1 x53 -1 x69 -1 x85 -1 x101 -1 x117 -1 x133 -1 x149 -1 x165 -1 x181 -1 x197 -1 x213 -1 x229 -1 x245 -1 x261 -1 x277 -1 x293 -1 x309 -1 x325 -1 x341 >= -10;
+1 x54 +1 x70 +1 x86 +1 x102 +1 x118 +1 x134 +1 x150 +1 x166 +1 x182 +1 x198 +1 x214 +1 x230 +1 x246 +1 x262 +1 x278 +1 x294 +1 x310 +1 x326 +1 x342 >= 9;
-1 x54 -1 x70 -1 x86 -1 x102 -1 x118 -1 x134 -1 x150 -1 x166 -1 x182 -1 x198 -1 x214 -1 x230 -1 x246 -1 x262 -1 x278 -1 x294 -1 x310 -1 x326 -1 x342 >= -10;
+1 x55 +1 x71 +1 x87 +1 x103 +1 x119 +1 x135 +1 x151 +1 x167 +1 x183 +1 x199 +1 x215 +1 x231 +1 x247 +1 x263 +1 x279 +1 x295 +1 x311 +1 x327 +1 x343 >= 9;
-1 x55 -1 x71 -1 x87 -1 x103 -1 x119 -1 x135 -1 x151 -1 x167 -1 x183 -1 x199 -1 x215 -1 x231 -1 x247 -1 x263 -1 x279 -1 x295 -1 x311 -1 x327 -1 x343 >= -10;
+1 x56 +1 x72 +1 x88 +1 x104 +1 x120 +1 x136 +1 x152 +1 x168 +1 x184 +1 x200 +1 x216 +1 x232 +1 x248 +1 x264 +1 x280 +1 x296 +1 x312 +1 x328 +1 x344 >= 9;
-1 x56 -1 x72 -1 x88 -1 x104 -1 x120 -1 x136 -1 x152 -1 x168 -1 x184 -1 x200 -1 x216 -1 x232 -1 x248 -1 x264 -1 x280 -1 x296 -1 x312 -1 x328 -1 x344 >= -10;
+1 x1 +1 x18 +1 x35 +1 x52 +1 x69 +1 x86 +1 x103 +1 x120 +1 x137 +1 x154 +1 x171 +1 x188 +1 x205 +1 x222 +1 x239 +1 x256 +1 x273 +1 x290 +1 x307 >= 9;
-1 x1 -1 x18 -1 x35 -1 x52 -1 x69 -1 x86 -1 x103 -1 x120 -1 x137 -1 x154 -1 x171 -1 x188 -1 x205 -1 x222 -1 x239 -1 x256 -1 x273 -1 x290 -1 x307 >= -10;
+1 x2 +1 x19 +1 x36 +1 x53 +1 x70 +1 x87 +1 x104 +1 x121 +1 x138 +1 x155 +1 x172 +1 x189 +1 x206 +1 x223 +1 x240 +1 x257 +1 x274 +1 x291 +1 x308 >= 9;
-1 x2 -1 x19 -1 x36 -1 x53 -1 x70 -1 x87 -1 x104 -1 x121 -1 x138 -1 x155 -1 x172 -1 x189 -1 x206 -1 x223 -1 x240 -1 x257 -1 x274 -1 x291 -1 x308 >= -10;
+1 x3 +1 x20 +1 x37 +1 x54 +1 x71 +1 x88 +1 x105 +1 x122 +1 x139 +1 x156 +1 x173 +1 x190 +1 x207 +1 x224 +1 x241 +1 x258 +1 x275 +1 x292 +1 x309 >= 9;
-1 x3 -1 x20 -1 x37 -1 x54 -1 x71 -1 x88 -1 x105 -1 x122 -1 x139 -1 x156 -1 x173 -1 x190 -1 x207 -1 x224 -1 x241 -1 x258 -1 x275 -1 x292 -1 x309 >= -10;
+1 x4 +1 x21 +1 x38 +1 x55 +1 x72 +1 x89 +1 x106 +1 x123 +1 x140 +1 x157 +1 x174 +1 x191 +1 x208 +1 x225 +1 x242 +1 x259 +1 x276 +1 x293 +1 x310 >= 9;
-1 x4 -1 x21 -1 x38 -1 x55 -1 x72 -1 x89 -1 x106 -1 x123 -1 x140 -1 x157 -1 x174 -1 x191 -1 x208 -1 x225 -1 x242 -1 x259 -1 x276 -1 x293 -1 x310 >= -10;
+1 x5 +1 x22 +1 x39 +1 x56 +1 x73 +1 x90 +1 x107 +1 x124 +1 x141 +1 x158 +1 x175 +1 x192 +1 x209 +1 x226 +1 x243 +1 x260 +1 x277 +1 x294 +1 x311 >= 9;
-1 x5 -1 x22 -1 x39 -1 x56 -1 x73 -1 x90 -1 x107 -1 x124 -1 x141 -1 x158 -1 x175 -1 x192 -1 x209 -1 x226 -1 x243 -1 x260 -1 x277 -1 x294 -1 x311 >= -10;
+1 x6 +1 x23 +1 x40 +1 x57 +1 x74 +1 x91 +1 x108 +1 x125 +1 x142 +1 x159 +1 x176 +1 x193 +1 x210 +1 x227 +1 x244 +1 x261 +1 x278 +1 x295 +1 x312 >= 9;
-1 x6 -1 x23 -1 x40 -1 x57 -1 x74 -1 x91 -1 x108 -1 x125 -1 x142 -1 x159 -1 x176 -1 x193 -1 x210 -1 x227 -1 x244 -1 x261 -1 x278 -1 x295 -1 x312 >= -10;
+1 x7 +1 x24 +1 x41 +1 x58 +1 x75 +1 x92 +1 x109 +1 x126 +1 x143 +1 x160 +1 x177 +1 x194 +1 x211 +1 x228 +1 x245 +1 x262 +1 x279 +1 x296 +1 x313 >= 9;
-1 x7 -1 x24 -1 x41 -1 x58 -1 x75 -1 x92 -1 x109 -1 x126 -1 x143 -1 x160 -1 x177 -1 x194 -1 x211 -1 x228 -1 x245 -1 x262 -1 x279 -1 x296 -1 x313 >= -10;
+1 x8 +1 x25 +1 x42 +1 x59 +1 x76 +1 x93 +1 x110 +1 x127 +1 x144 +1 x161 +1 x178 +1 x195 +1 x212 +1 x229 +1 x246 +1 x263 +1 x280 +1 x297 +1 x314 >= 9;
-1 x8 -1 x25 -1 x42 -1 x59 -1 x76 -1 x93 -1 x110 -1 x127 -1 x144 -1 x161 -1 x178 -1 x195 -1 x212 -1 x229 -1 x246 -1 x263 -1 x280 -1 x297 -1 x314 >= -10;
+1 x9 +1 x26 +1 x43 +1 x60 +1 x77 +1 x94 +1 x111 +1 x128 +1 x145 +1 x162 +1 x179 +1 x196 +1 x213 +1 x230 +1 x247 +1 x264 +1 x281 +1 x298 +1 x315 >= 9;
-1 x9 -1 x26 -1 x43 -1 x60 -1 x77 -1 x94 -1 x111 -1 x128 -1 x145 -1 x162 -1 x179 -1 x196 -1 x213 -1 x230 -1 x247 -1 x264 -1 x281 -1 x298 -1 x315 >= -10;
+1 x10 +1 x27 +1 x44 +1 x61 +1 x78 +1 x95 +1 x112 +1 x129 +1 x146 +1 x163 +1 x180 +1 x197 +1 x214 +1 x231 +1 x248 +1 x265 +1 x282 +1 x299 +1 x316 >= 9;
-1 x10 -1 x27 -1 x44 -1 x61 -1 x78 -1 x95 -1 x112 -1 x129 -1 x146 -1 x163 -1 x180 -1 x197 -1 x214 -1 x231 -1 x248 -1 x265 -1 x282 -1 x299 -1 x316 >= -10;
+1 x11 +1 x28 +1 x45 +1 x62 +1 x79 +1 x96 +1 x113 +1 x130 +1 x147 +1 x164 +1 x181 +1 x198 +1 x215 +1 x232 +1 x249 +1 x266 +1 x283 +1 x300 +1 x317 >= 9;
-1 x11 -1 x28 -1 x45 -1 x62 -1 x79 -1 x96 -1 x113 -1 x130 -1 x147 -1 x164 -1 x181 -1 x198 -1 x215 -1 x232 -1 x249 -1 x266 -1 x283 -1 x300 -1 x317 >= -10;
+1 x12 +1 x29 +1 x46 +1 x63 +1 x80 +1 x97 +1 x114 +1 x131 +1 x148 +1 x165 +1 x182 +1 x199 +1 x216 +1 x233 +1 x250 +1 x267 +1 x284 +1 x301 +1 x318 >= 9;
-1 x12 -1 x29 -1 x46 -1 x63 -1 x80 -1 x97 -1 x114 -1 x131 -1 x148 -1 x165 -1 x182 -1 x199 -1 x216 -1 x233 -1 x250 -1 x267 -1 x284 -1 x301 -1 x318 >= -10;
+1 x13 +1 x30 +1 x47 +1 x64 +1 x81 +1 x98 +1 x115 +1 x132 +1 x149 +1 x166 +1 x183 +1 x200 +1 x217 +1 x234 +1 x251 +1 x268 +1 x285 +1 x302 +1 x319 >= 9;
-1 x13 -1 x30 -1 x47 -1 x64 -1 x81 -1 x98 -1 x115 -1 x132 -1 x149 -1 x166 -1 x183 -1 x200 -1 x217 -1 x234 -1 x251 -1 x268 -1 x285 -1 x302 -1 x319 >= -10;
+1 x14 +1 x31 +1 x48 +1 x65 +1 x82 +1 x99 +1 x116 +1 x133 +1 x150 +1 x167 +1 x184 +1 x201 +1 x218 +1 x235 +1 x252 +1 x269 +1 x286 +1 x303 +1 x320 >= 9;
-1 x14 -1 x31 -1 x48 -1 x65 -1 x82 -1 x99 -1 x116 -1 x133 -1 x150 -1 x167 -1 x184 -1 x201 -1 x218 -1 x235 -1 x252 -1 x269 -1 x286 -1 x303 -1 x320 >= -10;
+1 x15 +1 x32 +1 x49 +1 x66 +1 x83 +1 x100 +1 x117 +1 x134 +1 x151 +1 x168 +1 x185 +1 x202 +1 x219 +1 x236 +1 x253 +1 x270 +1 x287 +1 x304 +1 x321 >= 9;
-1 x15 -1 x32 -1 x49 -1 x66 -1 x83 -1 x100 -1 x117 -1 x134 -1 x151 -1 x168 -1 x185 -1 x202 -1 x219 -1 x236 -1 x253 -1 x270 -1 x287 -1 x304 -1 x321 >= -10;
+1 x16 +1 x33 +1 x50 +1 x67 +1 x84 +1 x101 +1 x118 +1 x135 +1 x152 +1 x169 +1 x186 +1 x203 +1 x220 +1 x237 +1 x254 +1 x271 +1 x288 +1 x305 +1 x322 >= 9;
-1 x16 -1 x33 -1 x50 -1 x67 -1 x84 -1 x101 -1 x118 -1 x135 -1 x152 -1 x169 -1 x186 -1 x203 -1 x220 -1 x237 -1 x254 -1 x271 -1 x288 -1 x305 -1 x322 >= -10;
+1 x17 +1 x34 +1 x51 +1 x68 +1 x85 +1 x102 +1 x119 +1 x136 +1 x153 +1 x170 +1 x187 +1 x204 +1 x221 +1 x238 +1 x255 +1 x272 +1 x289 +1 x306 +1 x323 >= 9;
-1 x17 -1 x34 -1 x51 -1 x68 -1 x85 -1 x102 -1 x119 -1 x136 -1 x153 -1 x170 -1 x187 -1 x204 -1 x221 -1 x238 -1 x255 -1 x272 -1 x289 -1 x306 -1 x323 >= -10;
+1 x18 +1 x35 +1 x52 +1 x69 +1 x86 +1 x103 +1 x120 +1 x137 +1 x154 +1 x171 +1 x188 +1 x205 +1 x222 +1 x239 +1 x256 +1 x273 +1 x290 +1 x307 +1 x324 >= 9;
-1 x18 -1 x35 -1 x52 -1 x69 -1 x86 -1 x103 -1 x120 -1 x137 -1 x154 -1 x171 -1 x188 -1 x205 -1 x222 -1 x239 -1 x256 -1 x273 -1 x290 -1 x307 -1 x324 >= -10;
+1 x19 +1 x36 +1 x53 +1 x70 +1 x87 +1 x104 +1 x121 +1 x138 +1 x155 +1 x172 +1 x189 +1 x206 +1 x223 +1 x240 +1 x257 +1 x274 +1 x291 +1 x308 +1 x325 >= 9;
-1 x19 -1 x36 -1 x53 -1 x70 -1 x87 -1 x104 -1 x121 -1 x138 -1 x155 -1 x172 -1 x189 -1 x206 -1 x223 -1 x240 -1 x257 -1 x274 -1 x291 -1 x308 -1 x325 >= -10;
+1 x20 +1 x37 +1 x54 +1 x71 +1 x88 +1 x105 +1 x122 +1 x139 +1 x156 +1 x173 +1 x190 +1 x207 +1 x224 +1 x241 +1 x258 +1 x275 +1 x292 +1 x309 +1 x326 >= 9;
-1 x20 -1 x37 -1 x54 -1 x71 -1 x88 -1 x105 -1 x122 -1 x139 -1 x156 -1 x173 -1 x190 -1 x207 -1 x224 -1 x241 -1 x258 -1 x275 -1 x292 -1 x309 -1 x326 >= -10;
+1 x21 +1 x38 +1 x55 +1 x72 +1 x89 +1 x106 +1 x123 +1 x140 +1 x157 +1 x174 +1 x191 +1 x208 +1 x225 +1 x242 +1 x259 +1 x276 +1 x293 +1 x310 +1 x327 >= 9;
-1 x21 -1 x38 -1 x55 -1 x72 -1 x89 -1 x106 -1 x123 -1 x140 -1 x157 -1 x174 -1 x191 -1 x208 -1 x225 -1 x242 -1 x259 -1 x276 -1 x293 -1 x310 -1 x327 >= -10;
+1 x22 +1 x39 +1 x56 +1 x73 +1 x90 +1 x107 +1 x124 +1 x141 +1 x158 +1 x175 +1 x192 +1 x209 +1 x226 +1 x243 +1 x260 +1 x277 +1 x294 +1 x311 +1 x328 >= 9;
-1 x22 -1 x39 -1 x56 -1 x73 -1 x90 -1 x107 -1 x124 -1 x141 -1 x158 -1 x175 -1 x192 -1 x209 -1 x226 -1 x243 -1 x260 -1 x277 -1 x294 -1 x311 -1 x328 >= -10;
+1 x23 +1 x40 +1 x57 +1 x74 +1 x91 +1 x108 +1 x125 +1 x142 +1 x159 +1 x176 +1 x193 +1 x210 +1 x227 +1 x244 +1 x261 +1 x278 +1 x295 +1 x312 +1 x329 >= 9;
-1 x23 -1 x40 -1 x57 -1 x74 -1 x91 -1 x108 -1 x125 -1 x142 -1 x159 -1 x176 -1 x193 -1 x210 -1 x227 -1 x244 -1 x261 -1 x278 -1 x295 -1 x312 -1 x329 >= -10;
+1 x24 +1 x41 +1 x58 +1 x75 +1 x92 +1 x109 +1 x126 +1 x143 +1 x160 +1 x177 +1 x194 +1 x211 +1 x228 +1 x245 +1 x262 +1 x279 +1 x296 +1 x313 +1 x330 >= 9;
-1 x24 -1 x41 -1 x58 -1 x75 -1 x92 -1 x109 -1 x126 -1 x143 -1 x160 -1 x177 -1 x194 -1 x211 -1 x228 -1 x245 -1 x262 -1 x279 -1 x296 -1 x313 -1 x330 >= -10;
+1 x25 +1 x42 +1 x59 +1 x76 +1 x93 +1 x110 +1 x127 +1 x144 +1 x161 +1 x178 +1 x195 +1 x212 +1 x229 +1 x246 +1 x263 +1 x280 +1 x297 +1 x314 +1 x331 >= 9;
-1 x25 -1 x42 -1 x59 -1 x76 -1 x93 -1 x110 -1 x127 -1 x144 -1 x161 -1 x178 -1 x195 -1 x212 -1 x229 -1 x246 -1 x263 -1 x280 -1 x297 -1 x314 -1 x331 >= -10;
+1 x26 +1 x43 +1 x60 +1 x77 +1 x94 +1 x111 +1 x128 +1 x145 +1 x162 +1 x179 +1 x196 +1 x213 +1 x230 +1 x247 +1 x264 +1 x281 +1 x298 +1 x315 +1 x332 >= 9;
-1 x26 -1 x43 -1 x60 -1 x77 -1 x94 -1 x111 -1 x128 -1 x145 -1 x162 -1 x179 -1 x196 -1 x213 -1 x230 -1 x247 -1 x264 -1 x281 -1 x298 -1 x315 -1 x332 >= -10;
+1 x27 +1 x44 +1 x61 +1 x78 +1 x95 +1 x112 +1 x129 +1 x146 +1 x163 +1 x180 +1 x197 +1 x214 +1 x231 +1 x248 +1 x265 +1 x282 +1 x299 +1 x316 +1 x333 >= 9;
-1 x27 -1 x44 -1 x61 -1 x78 -1 x95 -1 x112 -1 x129 -1 x146 -1 x163 -1 x180 -1 x197 -1 x214 -1 x231 -1 x248 -1 x265 -1 x282 -1 x299 -1 x316 -1 x333 >= -10;
+1 x28 +1 x45 +1 x62 +1 x79 +1 x96 +1 x113 +1 x130 +1 x147 +1 x164 +1 x181 +1 x198 +1 x215 +1 x232 +1 x249 +1 x266 +1 x283 +1 x300 +1 x317 +1 x334 >= 9;
-1 x28 -1 x45 -1 x62 -1 x79 -1 x96 -1 x113 -1 x130 -1 x147 -1 x164 -1 x181 -1 x198 -1 x215 -1 x232 -1 x249 -1 x266 -1 x283 -1 x300 -1 x317 -1 x334 >= -10;
+1 x29 +1 x46 +1 x63 +1 x80 +1 x97 +1 x114 +1 x131 +1 x148 +1 x165 +1 x182 +1 x199 +1 x216 +1 x233 +1 x250 +1 x267 +1 x284 +1 x301 +1 x318 +1 x335 >= 9;
-1 x29 -1 x46 -1 x63 -1 x80 -1 x97 -1 x114 -1 x131 -1 x148 -1 x165 -1 x182 -1 x199 -1 x216 -1 x233 -1 x250 -1 x267 -1 x284 -1 x301 -1 x318 -1 x335 >= -10;
+1 x30 +1 x47 +1 x64 +1 x81 +1 x98 +1 x115 +1 x132 +1 x149 +1 x166 +1 x183 +1 x200 +1 x217 +1 x234 +1 x251 +1 x268 +1 x285 +1 x302 +1 x319 +1 x336 >= 9;
-1 x30 -1 x47 -1 x64 -1 x81 -1 x98 -1 x115 -1 x132 -1 x149 -1 x166 -1 x183 -1 x200 -1 x217 -1 x234 -1 x251 -1 x268 -1 x285 -1 x302 -1 x319 -1 x336 >= -10;
+1 x31 +1 x48 +1 x65 +1 x82 +1 x99 +1 x116 +1 x133 +1 x150 +1 x167 +1 x184 +1 x201 +1 x218 +1 x235 +1 x252 +1 x269 +1 x286 +1 x303 +1 x320 +1 x337 >= 9;
-1 x31 -1 x48 -1 x65 -1 x82 -1 x99 -1 x116 -1 x133 -1 x150 -1 x167 -1 x184 -1 x201 -1 x218 -1 x235 -1 x252 -1 x269 -1 x286 -1 x303 -1 x320 -1 x337 >= -10;
+1 x32 +1 x49 +1 x66 +1 x83 +1 x100 +1 x117 +1 x134 +1 x151 +1 x168 +1 x185 +1 x202 +1 x219 +1 x236 +1 x253 +1 x270 +1 x287 +1 x304 +1 x321 +1 x338 >= 9;
-1 x32 -1 x49 -1 x66 -1 x83 -1 x100 -1 x117 -1 x134 -1 x151 -1 x168 -1 x185 -1 x202 -1 x219 -1 x236 -1 x253 -1 x270 -1 x287 -1 x304 -1 x321 -1 x338 >= -10;
+1 x33 +1 x50 +1 x67 +1 x84 +1 x101 +1 x118 +1 x135 +1 x152 +1 x169 +1 x186 +1 x203 +1 x220 +1 x237 +1 x254 +1 x271 +1 x288 +1 x305 +1 x322 +1 x339 >= 9;
-1 x33 -1 x50 -1 x67 -1 x84 -1 x101 -1 x118 -1 x135 -1 x152 -1 x169 -1 x186 -1 x203 -1 x220 -1 x237 -1 x254 -1 x271 -1 x288 -1 x305 -1 x322 -1 x339 >= -10;
+1 x34 +1 x51 +1 x68 +1 x85 +1 x102 +1 x119 +1 x136 +1 x153 +1 x170 +1 x187 +1 x204 +1 x221 +1 x238 +1 x255 +1 x272 +1 x289 +1 x306 +1 x323 +1 x340 >= 9;
-1 x34 -1 x51 -1 x68 -1 x85 -1 x102 -1 x119 -1 x136 -1 x153 -1 x170 -1 x187 -1 x204 -1 x221 -1 x238 -1 x255 -1 x272 -1 x289 -1 x306 -1 x323 -1 x340 >= -10;
+1 x35 +1 x52 +1 x69 +1 x86 +1 x103 +1 x120 +1 x137 +1 x154 +1 x171 +1 x188 +1 x205 +1 x222 +1 x239 +1 x256 +1 x273 +1 x290 +1 x307 +1 x324 +1 x341 >= 9;
-1 x35 -1 x52 -1 x69 -1 x86 -1 x103 -1 x120 -1 x137 -1 x154 -1 x171 -1 x188 -1 x205 -1 x222 -1 x239 -1 x256 -1 x273 -1 x290 -1 x307 -1 x324 -1 x341 >= -10;
+1 x36 +1 x53 +1 x70 +1 x87 +1 x104 +1 x121 +1 x138 +1 x155 +1 x172 +1 x189 +1 x206 +1 x223 +1 x240 +1 x257 +1 x274 +1 x291 +1 x308 +1 x325 +1 x342 >= 9;
-1 x36 -1 x53 -1 x70 -1 x87 -1 x104 -1 x121 -1 x138 -1 x155 -1 x172 -1 x189 -1 x206 -1 x223 -1 x240 -1 x257 -1 x274 -1 x291 -1 x308 -1 x325 -1 x342 >= -10;
+1 x37 +1 x54 +1 x71 +1 x88 +1 x105 +1 x122 +1 x139 +1 x156 +1 x173 +1 x190 +1 x207 +1 x224 +1 x241 +1 x258 +1 x275 +1 x292 +1 x309 +1 x326 +1 x343 >= 9;
-1 x37 -1 x54 -1 x71 -1 x88 -1 x105 -1 x122 -1 x139 -1 x156 -1 x173 -1 x190 -1 x207 -1 x224 -1 x241 -1 x258 -1 x275 -1 x292 -1 x309 -1 x326 -1 x343 >= -10;
+1 x38 +1 x55 +1 x72 +1 x89 +1 x106 +1 x123 +1 x140 +1 x157 +1 x174 +1 x191 +1 x208 +1 x225 +1 x242 +1 x259 +1 x276 +1 x293 +1 x310 +1 x327 +1 x344 >= 9;
-1 x38 -1 x55 -1 x72 -1 x89 -1 x106 -1 x123 -1 x140 -1 x157 -1 x174 -1 x191 -1 x208 -1 x225 -1 x242 -1 x259 -1 x276 -1 x293 -1 x310 -1 x327 -1 x344 >= -10;
+1 x1 +1 x19 +1 x37 +1 x55 +1 x73 +1 x91 +1 x109 +1 x127 +1 x145 +1 x163 +1 x181 +1 x199 +1 x217 +1 x235 +1 x253 +1 x271 +1 x289 +1 x307 +1 x325 >= 9;
-1 x1 -1 x19 -1 x37 -1 x55 -1 x73 -1 x91 -1 x109 -1 x127 -1 x145 -1 x163 -1 x181 -1 x199 -1 x217 -1 x235 -1 x253 -1 x271 -1 x289 -1 x307 -1 x325 >= -10;
+1 x2 +1 x20 +1 x38 +1 x56 +1 x74 +1 x92 +1 x110 +1 x128 +1 x146 +1 x164 +1 x182 +1 x200 +1 x218 +1 x236 +1 x254 +1 x272 +1 x290 +1 x308 +1 x326 >= 9;
-1 x2 -1 x20 -1 x38 -1 x56 -1 x74 -1 x92 -1 x110 -1 x128 -1 x146 -1 x164 -1 x182 -1 x200 -1 x218 -1 x236 -1 x254 -1 x272 -1 x290 -1 x308 -1 x326 >= -10;
+1 x3 +1 x21 +1 x39 +1 x57 +1 x75 +1 x93 +1 x111 +1 x129 +1 x147 +1 x165 +1 x183 +1 x201 +1 x219 +1 x237 +1 x255 +1 x273 +1 x291 +1 x309 +1 x327 >= 9;
-1 x3 -1 x21 -1 x39 -1 x57 -1 x75 -1 x93 -1 x111 -1 x129 -1 x147 -1 x165 -1 x183 -1 x201 -1 x219 -1 x237 -1 x255 -1 x273 -1 x291 -1 x309 -1 x327 >= -10;
+1 x4 +1 x22 +1 x40 +1 x58 +1 x76 +1 x94 +1 x112 +1 x130 +1 x148 +1 x166 +1 x184 +1 x202 +1 x220 +1 x238 +1 x256 +1 x274 +1 x292 +1 x310 +1 x328 >= 9;
-1 x4 -1 x22 -1 x40 -1 x58 -1 x76 -1 x94 -1 x112 -1 x130 -1 x148 -1 x166 -1 x184 -1 x202 -1 x220 -1 x238 -1 x256 -1 x274 -1 x292 -1 x310 -1 x328 >= -10;
+1 x5 +1 x23 +1 x41 +1 x59 +1 x77 +1 x95 +1 x113 +1 x131 +1 x149 +1 x167 +1 x185 +1 x203 +1 x221 +1 x239 +1 x257 +1 x275 +1 x293 +1 x311 +1 x329 >= 9;
-1 x5 -1 x23 -1 x41 -1 x59 -1 x77 -1 x95 -1 x113 -1 x131 -1 x149 -1 x167 -1 x185 -1 x203 -1 x221 -1 x239 -1 x257 -1 x275 -1 x293 -1 x311 -1 x329 >= -10;
+1 x6 +1 x24 +1 x42 +1 x60 +1 x78 +1 x96 +1 x114 +1 x132 +1 x150 +1 x168 +1 x186 +1 x204 +1 x222 +1 x240 +1 x258 +1 x276 +1 x294 +1 x312 +1 x330 >= 9;
-1 x6 -1 x24 -1 x42 -1 x60 -1 x78 -1 x96 -1 x114 -1 x132 -1 x150 -1 x168 -1 x186 -1 x204 -1 x222 -1 x240 -1 x258 -1 x276 -1 x294 -1 x312 -1 x330 >= -10;
+1 x7 +1 x25 +1 x43 +1 x61 +1 x79 +1 x97 +1 x115 +1 x133 +1 x151 +1 x169 +1 x187 +1 x205 +1 x223 +1 x241 +1 x259 +1 x277 +1 x295 +1 x313 +1 x331 >= 9;
-1 x7 -1 x25 -1 x43 -1 x61 -1 x79 -1 x97 -1 x115 -1 x133 -1 x151 -1 x169 -1 x187 -1 x205 -1 x223 -1 x241 -1 x259 -1 x277 -1 x295 -1 x313 -1 x331 >= -10;
+1 x8 +1 x26 +1 x44 +1 x62 +1 x80 +1 x98 +1 x116 +1 x134 +1 x152 +1 x170 +1 x188 +1 x206 +1 x224 +1 x242 +1 x260 +1 x278 +1 x296 +1 x314 +1 x332 >= 9;
-1 x8 -1 x26 -1 x44 -1 x62 -1 x80 -1 x98 -1 x116 -1 x134 -1 x152 -1 x170 -1 x188 -1 x206 -1 x224 -1 x242 -1 x260 -1 x278 -1 x296 -1 x314 -1 x332 >= -10;
+1 x9 +1 x27 +1 x45 +1 x63 +1 x81 +1 x99 +1 x117 +1 x135 +1 x153 +1 x171 +1 x189 +1 x207 +1 x225 +1 x243 +1 x261 +1 x279 +1 x297 +1 x315 +1 x333 >= 9;
-1 x9 -1 x27 -1 x45 -1 x63 -1 x81 -1 x99 -1 x117 -1 x135 -1 x153 -1 x171 -1 x189 -1 x207 -1 x225 -1 x243 -1 x261 -1 x279 -1 x297 -1 x315 -1 x333 >= -10;
+1 x10 +1 x28 +1 x46 +1 x64 +1 x82 +1 x100 +1 x118 +1 x136 +1 x154 +1 x172 +1 x190 +1 x208 +1 x226 +1 x244 +1 x262 +1 x280 +1 x298 +1 x316 +1 x334 >= 9;
-1 x10 -1 x28 -1 x46 -1 x64 -1 x82 -1 x100 -1 x118 -1 x136 -1 x154 -1 x172 -1 x190 -1 x208 -1 x226 -1 x244 -1 x262 -1 x280 -1 x298 -1 x316 -1 x334 >= -10;
+1 x11 +1 x29 +1 x47 +1 x65 +1 x83 +1 x101 +1 x119 +1 x137 +1 x155 +1 x173 +1 x191 +1 x209 +1 x227 +1 x245 +1 x263 +1 x281 +1 x299 +1 x317 +1 x335 >= 9;
-1 x11 -1 x29 -1 x47 -1 x65 -1 x83 -1 x101 -1 x119 -1 x137 -1 x155 -1 x173 -1 x191 -1 x209 -1 x227 -1 x245 -1 x263 -1 x281 -1 x299 -1 x317 -1 x335 >= -10;
+1 x12 +1 x30 +1 x48 +1 x66 +1 x84 +1 x102 +1 x120 +1 x138 +1 x156 +1 x174 +1 x192 +1 x210 +1 x228 +1 x246 +1 x264 +1 x282 +1 x300 +1 x318 +1 x336 >= 9;
-1 x12 -1 x30 -1 x48 -1 x66 -1 x84 -1 x102 -1 x120 -1 x138 -1 x156 -1 x174 -1 x192 -1 x210 -1 x228 -1 x246 -1 x264 -1 x282 -1 x300 -1 x318 -1 x336 >= -10;
+1 x13 +1 x31 +1 x49 +1 x67 +1 x85 +1 x103 +1 x121 +1 x139 +1 x157 +1 x175 +1 x193 +1 x211 +1 x229 +1 x247 +1 x265 +1 x283 +1 x301 +1 x319 +1 x337 >= 9;
-1 x13 -1 x31 -1 x49 -1 x67 -1 x85 -1 x103 -1 x121 -1 x139 -1 x157 -1 x175 -1 x193 -1 x211 -1 x229 -1 x247 -1 x265 -1 x283 -1 x301 -1 x319 -1 x337 >= -10;
+1 x14 +1 x32 +1 x50 +1 x68 +1 x86 +1 x104 +1 x122 +1 x140 +1 x158 +1 x176 +1 x194 +1 x212 +1 x230 +1 x248 +1 x266 +1 x284 +1 x302 +1 x320 +1 x338 >= 9;
-1 x14 -1 x32 -1 x50 -1 x68 -1 x86 -1 x104 -1 x122 -1 x140 -1 x158 -1 x176 -1 x194 -1 x212 -1 x230 -1 x248 -1 x266 -1 x284 -1 x302 -1 x320 -1 x338 >= -10;
+1 x15 +1 x33 +1 x51 +1 x69 +1 x87 +1 x105 +1 x123 +1 x141 +1 x159 +1 x177 +1 x195 +1 x213 +1 x231 +1 x249 +1 x267 +1 x285 +1 x303 +1 x321 +1 x339 >= 9;
-1 x15 -1 x33 -1 x51 -1 x69 -1 x87 -1 x105 -1 x123 -1 x141 -1 x159 -1 x177 -1 x195 -1 x213 -1 x231 -1 x249 -1 x267 -1 x285 -1 x303 -1 x321 -1 x339 >= -10;
+1 x16 +1 x34 +1 x52 +1 x70 +1 x88 +1 x106 +1 x124 +1 x142 +1 x160 +1 x178 +1 x196 +1 x214 +1 x232 +1 x250 +1 x268 +1 x286 +1 x304 +1 x322 +1 x340 >= 9;
-1 x16 -1 x34 -1 x52 -1 x70 -1 x88 -1 x106 -1 x124 -1 x142 -1 x160 -1 x178 -1 x196 -1 x214 -1 x232 -1 x250 -1 x268 -1 x286 -1 x304 -1 x322 -1 x340 >= -10;
+1 x17 +1 x35 +1 x53 +1 x71 +1 x89 +1 x107 +1 x125 +1 x143 +1 x161 +1 x179 +1 x197 +1 x215 +1 x233 +1 x251 +1 x269 +1 x287 +1 x305 +1 x323 +1 x341 >= 9;
-1 x17 -1 x35 -1 x53 -1 x71 -1 x89 -1 x107 -1 x125 -1 x143 -1 x161 -1 x179 -1 x197 -1 x215 -1 x233 -1 x251 -1 x269 -1 x287 -1 x305 -1 x323 -1 x341 >= -10;
+1 x18 +1 x36 +1 x54 +1 x72 +1 x90 +1 x108 +1 x126 +1 x144 +1 x162 +1 x180 +1 x198 +1 x216 +1 x234 +1 x252 +1 x270 +1 x288 +1 x306 +1 x324 +1 x342 >= 9;
-1 x18 -1 x36 -1 x54 -1 x72 -1 x90 -1 x108 -1 x126 -1 x144 -1 x162 -1 x180 -1 x198 -1 x216 -1 x234 -1 x252 -1 x270 -1 x288 -1 x306 -1 x324 -1 x342 >= -10;
+1 x19 +1 x37 +1 x55 +1 x73 +1 x91 +1 x109 +1 x127 +1 x145 +1 x163 +1 x181 +1 x199 +1 x217 +1 x235 +1 x253 +1 x271 +1 x289 +1 x307 +1 x325 +1 x343 >= 9;
-1 x19 -1 x37 -1 x55 -1 x73 -1 x91 -1 x109 -1 x127 -1 x145 -1 x163 -1 x181 -1 x199 -1 x217 -1 x235 -1 x253 -1 x271 -1 x289 -1 x307 -1 x325 -1 x343 >= -10;
+1 x20 +1 x38 +1 x56 +1 x74 +1 x92 +1 x110 +1 x128 +1 x146 +1 x164 +1 x182 +1 x200 +1 x218 +1 x236 +1 x254 +1 x272 +1 x290 +1 x308 +1 x326 +1 x344 >= 9;
-1 x20 -1 x38 -1 x56 -1 x74 -1 x92 -1 x110 -1 x128 -1 x146 -1 x164 -1 x182 -1 x200 -1 x218 -1 x236 -1 x254 -1 x272 -1 x290 -1 x308 -1 x326 -1 x344 >= -10;
+1 x1 +1 x20 +1 x39 +1 x58 +1 x77 +1 x96 +1 x115 +1 x134 +1 x153 +1 x172 +1 x191 +1 x210 +1 x229 +1 x248 +1 x267 +1 x286 +1 x305 +1 x324 +1 x343 >= 9;
-1 x1 -1 x20 -1 x39 -1 x58 -1 x77 -1 x96 -1 x115 -1 x134 -1 x153 -1 x172 -1 x191 -1 x210 -1 x229 -1 x248 -1 x267 -1 x286 -1 x305 -1 x324 -1 x343 >= -10;
+1 x2 +1 x21 +1 x40 +1 x59 +1 x78 +1 x97 +1 x116 +1 x135 +1 x154 +1 x173 +1 x192 +1 x211 +1 x230 +1 x249 +1 x268 +1 x287 +1 x306 +1 x325 +1 x344 >= 9;
-1 x2 -1 x21 -1 x40 -1 x59 -1 x78 -1 x97 -1 x116 -1 x135 -1 x154 -1 x173 -1 x192 -1 x211 -1 x230 -1 x249 -1 x268 -1 x287 -1 x306 -1 x325 -1 x344 >= -10;
+1 x1 >= 1;
